zi929.tsp
cities: 929
runs: 929
avg cost: 293349
avg steps: 12639.7
best: 220082

Best route:
659 669 643 293 94 84 85 49 46 81 78 42 41 22 8 2 6 1 4 3 16 35 50 48 57 58 65 72 77 80 179 861 868 851 841 829 825 820 822 830 896 903 915 920 929 927 924 925 926 919 921 923 928 918 916 913 910 911 900 908 895 889 875 880 863 877 883 887 901 906 902 893 892 890 886 881 897 909 922 914 917 912 907 905 904 899 894 891 882 858 855 835 773 782 790 786 785 792 810 809 791 793 813 833 846 872 874 878 879 884 873 876 870 867 857 850 856 834 826 843 838 837 832 534 520 508 550 589 627 650 632 626 797 760 745 817 755 649 648 853 869 859 845 839 819 816 802 800 801 783 772 768 776 787 798 807 806 808 828 842 818 631 613 543 370 335 311 252 133 79 12 7 9 19 13 15 21 10 5 11 20 29 34 36 30 18 14 31 43 76 288 339 360 384 521 598 746 823 780 639 638 796 784 789 777 752 739 731 723 715 706 722 733 742 756 779 774 781 770 765 747 740 732 728 713 704 711 721 710 696 705 708 720 709 701 693 680 691 692 718 734 736 725 719 712 700 694 695 716 729 735 738 749 753 759 769 757 763 761 751 750 699 697 690 689 666 676 673 664 687 727 663 686 744 662 624 623 619 600 566 565 545 538 539 552 582 605 601 583 553 540 546 536 427 434 444 439 509 551 560 535 522 516 510 511 525 531 584 585 594 595 590 578 558 570 569 557 556 547 537 526 562 567 568 599 616 641 661 672 668 674 677 682 685 698 703 741 748 754 767 836 862 871 898 888 885 811 794 726 618 564 544 523 497 476 486 513 503 489 498 518 572 577 591 610 642 665 654 653 655 656 645 652 644 651 596 587 581 533 519 507 528 541 542 573 580 586 608 620 612 607 603 602 606 615 625 621 609 604 548 527 506 430 422 416 415 421 492 493 481 472 500 646 629 628 630 593 575 571 515 473 483 482 502 443 437 412 398 465 499 532 555 561 554 514 488 469 470 478 479 459 454 448 458 477 457 446 445 435 440 452 467 474 496 512 524 517 487 418 419 401 407 447 453 468 485 475 428 429 414 436 441 460 461 471 462 442 431 432 424 423 417 393 392 408 404 405 395 379 376 367 368 371 345 374 380 494 433 451 450 388 390 389 387 397 406 409 410 420 456 529 611 640 657 658 369 352 198 124 116 111 118 119 134 155 181 264 281 278 318 329 320 312 296 280 277 234 228 215 200 183 166 62 59 56 54 60 353 383 394 386 382 356 349 347 346 334 275 52 37 33 28 38 39 45 51 53 55 61 64 67 71 70 75 69 74 92 101 105 125 121 131 276 292 331 333 359 426 466 495 530 633 812 815 814 381 151 107 113 112 122 139 156 167 184 196 199 189 178 176 160 147 146 157 153 143 136 135 137 140 138 142 152 158 163 169 244 317 413 688 824 865 866 860 805 635 636 634 330 262 171 130 114 96 87 83 73 66 68 89 97 99 108 129 145 149 150 173 174 177 180 182 185 193 195 197 208 217 227 231 236 240 241 243 247 253 256 258 289 364 505 504 491 490 480 399 396 411 455 463 449 400 25 24 32 44 63 100 201 285 271 103 104 115 120 126 128 109 106 110 127 123 159 170 242 246 249 257 266 272 282 304 305 298 274 273 341 340 378 385 402 403 464 617 637 647 821 849 840 324 226 212 209 207 206 190 161 141 117 47 27 17 26 23 40 93 245 325 306 255 237 132 220 221 219 232 230 286 283 297 327 328 344 358 377 563 592 559 438 372 351 326 316 307 294 233 225 222 191 194 186 188 204 238 259 263 268 287 279 265 270 261 90 82 86 88 332 338 361 354 357 365 350 373 336 337 323 322 308 309 348 576 622 484 375 213 210 224 211 214 202 216 218 229 239 250 267 300 299 303 295 290 291 302 301 310 315 319 284 260 254 251 269 314 342 343 501 574 588 597 660 670 714 758 771 775 799 864 854 844 683 679 681 675 667 671 678 702 762 764 827 831 795 778 707 717 737 724 391 187 175 162 144 148 154 102 91 95 98 205 223 235 248 321 425 614 852 848 847 730 362 192 165 172 164 168 203 313 355 363 366 549 579 766 788 803 804 743 684 
