qa194.tsp
avg cost: 21116.5
avg steps: 279.268
best: 16851

20 23 25 75 70 22 12 7 5 0 1 3 10 13 24 59 63 57 55 46 50 15 35 62 19 64 89 93 98 100 79 86 78 80 76 67 65 60 26 11 9 8 4 2 6 16 17 43 41 48 112 113 125 124 133 131 126 110 97 84 85 129 155 175 193 185 174 164 167 176 180 187 190 191 188 166 158 146 151 140 138 137 141 145 148 160 162 168 163 153 143 149 152 156 171 181 178 172 173 144 139 136 118 121 150 154 147 142 127 14 18 122 123 159 165 184 192 189 186 182 183 177 179 169 170 161 157 135 54 49 34 29 31 30 33 36 44 56 27 21 28 38 47 52 51 53 83 91 94 95 92 90 87 82 73 77 74 71 68 69 45 40 37 39 42 66 72 99 119 132 134 128 130 117 102 101 81 61 58 88 103 108 105 104 109 111 114 120 116 115 107 106 96 32 
