qa194.tsp
cities: 194
runs: 194
avg cost: 21215.6
avg steps: 276.443
best: 17884

Best route:
93 103 144 150 153 152 136 135 129 133 143 148 155 151 147 141 119 101 89 94 99 104 111 130 140 145 149 146 157 168 178 180 170 167 162 158 84 66 49 42 44 41 38 37 45 33 25 23 36 63 59 62 71 69 60 56 53 52 54 46 48 43 40 47 61 67 73 100 116 117 159 165 175 163 161 156 98 90 82 80 113 154 177 181 184 189 192 190 194 187 186 183 173 174 142 137 134 132 127 125 126 114 109 102 91 70 51 39 34 27 22 9 10 12 15 19 30 32 35 31 29 21 24 26 76 87 78 75 72 17 7 4 2 3 5 64 77 81 79 57 28 18 11 8 6 1 20 65 86 85 16 13 14 74 88 92 97 110 112 108 107 105 106 131 166 171 188 191 193 185 160 128 50 55 58 68 83 138 164 172 179 182 176 169 139 122 118 121 120 124 123 115 95 96 
