qa194.tsp
cities: 194
runs: 194
avg cost: 18258.5
avg steps: 1283.06
best: 14791

Best route:
53 62 59 36 63 20 65 85 86 98 101 99 94 90 89 16 8 6 1 4 2 3 7 5 9 10 12 15 19 148 155 151 158 159 165 168 167 162 171 166 160 143 133 121 116 115 100 73 67 61 58 41 38 31 32 30 35 50 110 112 120 123 124 128 183 187 186 182 176 169 161 163 164 172 179 174 173 175 184 188 181 177 178 180 170 185 193 191 189 192 190 194 156 145 140 142 149 146 154 157 153 152 147 141 118 107 108 117 129 135 136 131 106 105 97 84 55 49 42 44 46 48 43 40 34 39 47 51 87 102 109 113 104 111 130 127 132 134 126 119 103 91 83 81 79 74 72 78 75 76 71 80 82 114 125 137 138 139 150 144 122 69 33 28 22 27 37 29 45 64 70 77 92 95 96 93 88 60 21 24 26 17 25 23 13 11 14 18 57 68 66 56 54 52 
