mu1979.tsp
cities: 1979
runs: 100
avg cost: 599235
avg steps: 36824.2
best: 477910

Best route:
1212 1547 1753 1754 1755 1762 1761 1763 1780 1786 1802 1830 1836 1853 1851 1855 1865 1871 1870 1867 1884 1886 1887 1894 1907 1921 1927 1931 1940 1945 1950 1960 1967 1977 1973 1974 1975 1108 915 409 410 407 406 398 363 355 349 340 331 324 323 357 368 401 425 484 480 498 499 525 796 818 824 823 854 882 928 925 908 1025 1098 1061 1065 1137 1140 1210 1322 1598 1601 1610 1621 1623 1788 1799 1800 1805 1831 1835 1852 1862 1893 1898 1911 1918 1934 1936 1956 1979 1978 1976 1971 1942 1949 1955 1943 1300 1273 1271 1264 1256 1248 1243 1198 1211 1202 1192 1161 1019 1009 1007 947 739 543 382 309 308 270 266 248 201 170 161 137 139 144 138 122 118 97 57 29 8 7 5 2 1 3 4 6 16 172 173 174 180 17 9 10 15 21 41 61 79 75 70 60 62 76 113 105 92 78 93 73 67 30 35 38 47 55 44 34 20 25 23 45 49 51 52 39 36 42 71 59 43 50 179 204 218 220 219 215 213 164 151 115 100 80 58 72 88 48 19 12 14 37 40 46 90 81 112 116 95 84 69 94 107 114 111 104 91 96 99 98 83 89 86 85 87 65 64 77 66 68 63 32 11 28 54 175 195 198 200 202 225 229 228 226 237 223 216 209 191 108 82 74 53 27 13 18 22 26 24 33 31 56 120 121 140 150 156 207 224 490 493 520 752 826 832 885 1092 1099 1149 1167 1247 1516 1558 1560 1564 1582 1635 1665 1672 1673 1675 1677 1691 1717 1730 1772 1792 1815 1829 1883 1909 1908 1813 1787 1783 1779 1656 1491 1287 1164 1135 877 847 734 727 695 684 618 603 616 634 731 944 975 982 1197 1227 1245 1254 1233 208 194 181 178 176 177 171 165 103 110 101 102 125 155 158 190 261 512 588 657 666 671 702 694 690 681 665 644 643 647 573 487 416 411 241 227 199 196 203 210 256 473 529 751 803 825 1180 1168 1138 1083 1005 700 600 584 555 542 509 434 375 321 296 291 285 279 277 272 257 182 143 132 130 149 148 147 159 141 134 129 142 135 152 136 127 109 128 221 255 452 708 716 779 999 1001 950 946 945 772 658 650 627 622 642 686 680 676 670 663 678 538 526 516 515 518 534 557 546 540 492 482 438 419 412 390 380 359 353 373 372 376 381 391 478 481 479 477 351 330 327 336 339 365 469 1043 1549 1578 1577 1604 1603 1597 1576 1567 1568 1563 1373 1320 1296 1124 1112 1094 1086 1088 1072 1068 1033 943 924 852 841 844 798 750 755 762 814 817 839 1023 1165 1166 1193 1216 1559 1593 1620 1629 1631 1633 1642 1655 1657 1654 1649 1644 1630 1627 1624 1608 1602 1588 1528 1505 1490 1475 1492 1500 1523 1522 1526 1535 1548 1557 1554 1553 1531 1520 1513 1510 1473 1443 1435 1426 1427 1801 1812 1838 1903 1924 1929 1941 1954 1959 1957 1953 1952 1948 1926 1925 1905 1896 1892 1846 1773 1738 1698 1694 1678 1679 1670 1660 1645 1636 1468 1163 1057 1012 985 878 861 845 707 214 186 168 163 119 117 131 154 160 166 167 162 123 124 106 157 169 205 245 263 424 437 503 528 535 562 656 664 689 720 783 1204 1414 1674 1688 1699 1708 1707 1692 1693 1696 1689 1687 1671 1628 1579 1541 1479 1477 1453 1448 1445 1439 1451 1450 1455 1456 1467 1471 1474 1476 1466 1449 1440 1311 1304 1185 1182 1348 1356 1391 1393 1430 1507 1497 1503 1487 1484 1482 1481 1752 1758 1770 1777 1776 1759 1751 1747 1737 1667 1615 1508 1498 1460 1454 1328 1326 1321 1310 1314 1313 1432 1446 1416 1294 1263 1252 1203 1000 288 153 145 206 312 445 454 522 531 551 577 632 648 673 729 741 748 802 800 799 829 834 859 866 863 899 920 983 1039 1049 1059 1075 1095 1101 1111 1119 1241 1338 1357 1352 1354 1347 1342 1175 1144 1133 1121 1109 1064 1047 1035 1020 865 811 793 808 807 780 764 767 758 736 765 766 781 791 813 819 948 1026 1038 1045 1034 1070 1126 1188 1324 1438 1653 1668 1683 1690 1695 1702 1703 1704 1700 1676 1659 1334 1055 1044 1041 1036 1066 1079 1162 1155 1191 1222 1390 1387 1377 1371 1332 1312 1279 1258 1261 1305 1388 1524 1538 1837 1847 1878 1888 1891 1864 1854 1817 1814 1796 1442 1441 1437 1429 1422 1431 1447 1457 1658 1661 1663 1648 1537 1534 1458 1370 1257 1196 1173 1172 1120 1100 1127 1134 1224 1250 1711 1713 1714 1709 1706 1705 1383 1358 1380 1809 1810 1811 1807 1592 1585 1581 1583 1584 1587 1641 1640 1632 1146 1115 1058 941 838 719 674 887 912 1028 1184 1794 1823 1826 1834 1841 1844 1859 1857 1875 1863 1842 1840 1839 1832 1828 1795 1790 1782 1742 1741 1739 1732 1729 1647 1595 1594 1618 1622 1625 1646 1637 1626 1638 1639 1574 1569 1571 1575 1580 1591 1600 1606 1607 1605 1619 1652 1666 1643 1519 1518 1529 1543 1530 1461 1459 609 591 497 361 362 333 332 328 326 325 343 370 383 392 404 430 427 510 514 508 506 474 453 443 193 192 184 187 685 873 858 855 860 856 820 771 728 724 711 610 598 579 567 560 625 669 682 986 984 974 978 977 574 501 377 354 344 311 258 251 247 250 254 253 252 259 268 483 661 853 960 949 940 958 1011 1031 1148 1147 1159 1251 1316 1325 1333 1327 1330 1336 1259 1239 1200 1189 1290 1308 1412 1452 1521 1573 1572 1562 1511 1480 1469 1401 1392 1406 1369 1353 1365 1374 1378 1379 1331 1319 1323 1366 1362 1317 1253 1230 1206 1169 1048 896 849 740 725 705 701 679 659 633 636 620 619 626 621 628 641 745 769 976 1091 1417 1434 1444 1504 1496 1472 1293 744 735 738 742 698 693 704 687 672 612 587 575 566 590 606 1181 1478 1561 1609 1613 1612 1617 1614 1433 1022 1010 710 662 637 635 608 601 605 797 898 1205 1213 1285 1318 1750 1766 1769 1768 1764 1220 1021 1004 1002 992 997 1014 1267 1292 1291 1818 1820 1822 1798 1793 1791 1407 1158 1117 1037 840 842 822 821 930 962 967 959 964 969 973 971 968 966 706 691 602 581 564 502 471 459 458 461 649 660 645 358 320 315 318 319 338 507 667 675 910 905 652 569 559 517 485 405 347 316 305 302 303 578 594 615 714 1142 1145 1160 1157 1152 810 790 773 761 763 938 934 939 951 936 893 894 874 722 688 388 378 262 242 238 236 271 317 322 334 456 494 513 504 495 489 486 440 439 371 374 385 580 586 709 1774 1775 1767 1156 558 547 553 554 541 441 433 426 423 422 421 476 475 570 1003 1062 1078 1076 1071 1080 1074 1073 1125 1102 1069 1089 1081 1097 1087 995 979 972 990 875 792 760 732 730 721 717 723 883 1054 1067 1143 1132 961 757 712 545 413 408 384 387 432 463 431 417 400 414 418 448 451 468 488 737 749 770 989 1017 1018 955 879 872 867 876 900 1024 1103 1116 1131 1386 1385 1384 1398 1403 1405 1410 1418 1555 1599 1611 1616 1586 1565 1486 1255 1225 1176 916 880 884 892 784 696 668 653 692 715 718 1013 1153 1232 1270 1399 1485 1493 1488 1489 1512 1506 1420 1409 1404 1411 1402 1397 1396 1394 1382 1114 597 393 389 436 435 614 624 753 804 795 835 1745 1765 1771 1848 1880 1881 1849 1843 1527 801 743 713 550 521 467 446 379 366 341 345 364 396 447 457 395 394 399 428 491 496 544 1187 1260 1266 1275 1283 1288 1289 1301 1295 1286 1219 1209 1208 1223 1218 1214 1170 1150 1110 901 851 785 782 788 922 965 994 1016 1032 1046 1093 1096 1141 1199 1217 1236 1244 1281 1274 1297 1298 1284 1276 1269 1272 1265 935 903 862 857 869 906 923 1186 1341 1335 1337 1339 1349 1734 1735 1733 1731 1727 1723 1106 909 895 886 888 833 827 848 991 1051 1050 1237 1566 1590 1596 1589 1556 1540 1533 1400 1136 1030 998 683 631 595 599 369 356 352 348 350 402 403 465 464 462 460 450 346 335 313 300 273 265 260 264 397 415 420 310 287 282 281 284 283 289 293 295 298 297 470 472 530 536 613 830 812 843 931 942 952 871 870 1060 1201 1359 1381 1372 1367 1249 837 655 623 639 651 756 775 733 776 1090 1104 1306 1424 1662 1664 1650 1570 1368 897 607 466 274 275 276 1129 1177 1268 1309 1329 1344 1350 1428 1423 1408 1085 1056 561 304 307 596 699 963 987 988 981 953 846 759 726 563 552 523 524 505 386 360 367 500 539 556 582 703 697 589 269 243 244 246 249 565 640 868 1082 1077 1246 1307 1376 1495 1539 1546 1545 1544 1499 1436 1364 891 881 789 747 746 993 1130 1282 1509 1517 1525 1651 1634 1550 929 232 233 235 329 337 449 533 583 592 611 629 638 754 1178 1415 1536 1542 1551 1552 1345 1343 1228 1231 1234 1238 1221 1215 1240 1123 1122 1015 630 548 549 267 240 239 234 230 231 778 902 1154 1226 1262 1235 1302 1303 1413 1514 1515 1470 1465 1483 1501 1502 1494 1363 1299 585 568 511 519 527 890 1008 1174 1280 1532 1669 1686 1721 1724 1726 1728 1744 1748 1749 1869 1858 1860 815 576 571 212 189 188 185 183 197 217 342 429 442 444 455 314 306 301 299 286 294 292 290 278 280 1027 1361 1375 1395 1242 1207 970 956 957 980 1042 1084 1151 1171 1139 1105 1063 1053 1029 932 654 222 211 146 126 133 1113 1107 774 617 593 604 864 913 1340 1389 1419 1684 1710 1720 1715 1229 1128 1052 926 914 918 831 836 805 794 786 777 768 646 532 537 572 677 809 816 787 806 889 1040 1190 1194 1315 1278 1277 1346 1351 1360 1697 1719 1760 1784 1825 1850 1882 1897 1901 1902 1877 1872 1874 1900 1904 1899 1895 1873 1866 1868 1916 1920 1937 1939 1922 1914 1890 1885 1879 1819 1808 1803 1804 1806 1816 1821 1845 1856 1861 1876 1889 1910 1913 1935 1947 1951 1958 1961 1964 1962 1963 1966 1968 1972 1970 1969 1965 1789 1757 1756 1746 1743 1722 1718 1716 1681 1680 1685 1682 1712 1736 1740 1725 1701 1464 1462 1425 1421 1824 1827 1833 1463 933 927 921 904 907 911 919 917 954 996 1006 1118 1179 1183 1195 1355 1915 1919 1932 1930 1923 1928 1933 1938 1944 1946 1797 1778 1781 1785 1906 1917 1912 850 828 937 
