uy734.tsp
cities: 734
runs: 734
avg cost: 220637
avg steps: 8134
best: 177584

Best route:
477 444 427 396 393 388 403 415 467 495 595 634 667 594 608 593 549 545 546 565 553 540 531 516 524 566 652 712 723 734 724 679 668 661 505 502 487 441 429 428 445 471 496 528 547 554 568 727 732 733 729 728 730 731 718 717 714 707 703 706 711 716 722 725 726 713 710 719 720 721 708 702 699 686 677 673 689 680 684 670 656 676 675 694 683 693 692 532 482 464 468 461 440 452 466 456 425 347 226 38 14 9 20 42 49 62 37 48 59 61 82 64 78 99 103 87 94 101 102 116 136 185 188 204 210 221 249 279 309 358 361 385 397 407 398 382 399 391 264 207 140 134 92 60 55 31 29 13 12 23 40 95 526 539 544 522 520 519 518 517 512 472 460 455 449 473 483 509 527 543 551 559 558 508 498 499 493 485 479 489 492 503 511 541 573 592 606 651 698 700 701 704 697 691 687 671 665 611 617 580 567 500 490 462 426 375 374 384 419 454 465 470 480 494 536 576 585 618 622 613 602 590 589 584 579 601 650 643 655 658 663 659 664 642 637 600 578 562 564 604 615 619 616 610 588 586 577 581 571 560 556 542 365 343 252 147 132 113 104 90 89 108 137 142 163 168 179 268 272 280 305 390 447 514 535 537 572 591 614 623 633 632 630 621 612 607 624 631 640 646 682 690 681 674 660 669 657 662 647 649 648 639 582 597 635 636 587 598 626 653 641 603 596 569 525 521 491 484 434 432 369 346 368 364 124 121 123 74 73 72 100 143 151 178 176 199 186 150 70 65 71 53 54 58 36 22 11 6 3 1 16 18 27 86 91 115 127 182 317 488 548 599 645 666 672 688 695 696 685 678 654 638 620 625 570 552 557 513 515 501 481 463 421 314 271 248 242 257 326 325 348 338 337 322 289 281 212 195 191 180 165 162 45 46 77 79 85 84 93 110 236 234 267 274 244 231 227 167 161 157 160 156 119 112 107 114 117 135 149 154 194 219 225 232 377 376 389 420 469 474 583 627 628 644 629 605 555 406 405 383 356 350 354 327 278 285 293 297 302 318 319 366 367 320 288 166 139 130 97 96 106 129 128 145 173 418 442 458 435 400 378 370 371 408 410 416 422 436 437 431 433 430 417 380 333 311 299 310 316 329 360 386 414 413 423 373 359 344 291 233 235 205 208 190 245 294 312 306 330 335 345 339 363 394 404 409 475 451 446 448 439 392 298 241 203 189 159 120 105 109 118 133 181 296 295 352 331 292 237 196 187 169 67 68 76 170 171 213 209 229 240 247 256 246 269 253 266 265 261 301 336 340 332 381 401 372 387 453 459 424 395 411 438 478 497 534 609 705 709 715 575 523 504 476 353 313 270 263 262 215 192 184 277 284 300 321 324 251 220 126 80 81 47 25 2 5 4 7 21 44 50 41 28 26 19 17 8 10 15 24 34 39 43 51 69 98 125 224 239 243 200 35 33 30 32 282 303 315 349 362 307 131 83 66 56 63 75 357 379 402 412 443 533 574 563 561 550 457 308 254 250 228 222 214 197 216 258 275 283 286 290 287 201 198 144 164 158 172 193 206 259 255 217 211 202 148 152 177 238 260 341 351 342 334 323 276 273 304 355 450 530 538 507 486 328 230 175 155 111 88 57 52 122 141 138 146 153 174 183 218 223 510 529 506 
