Best cost: 1297479
Time: 88036
Route:
1453 1431 1392 1404 1377 1393 1408 1435 1440 1450 1467 1534 1587 1604 1620 1550 1539 1530 1540 1535 1561 1577 1678 1578 1568 1574 1562 1575 1551 1579 1609 1588 1580 1569 1589 1621 1679 1667 1654 1661 1672 1687 1709 1725 1770 1772 1780 1785 1805 1831 1915 1923 1896 1916 1892 1948 1968 1997 1967 1914 1854 1869 1895 1966 2134 2171 2133 2180 2094 2086 2093 2092 2118 2153 2231 2393 2444 2423 2394 2424 2414 2495 2567 2679 2734 2802 2827 2882 2965 3041 3010 3056 3082 3121 3143 3142 3152 3177 3194 3230 3255 3265 3317 3378 3341 3318 3287 3282 3271 3272 3294 3273 3243 3218 3083 3066 3031 2958 2883 2818 2803 2804 2819 2293 2194 2257 2294 2496 2556 2611 2658 2841 2863 2850 2857 2872 2851 2852 2858 2859 2805 2811 2806 2725 2596 2526 2375 2323 2261 2211 2233 2182 2087 2313 2008 1924 1817 1788 1755 1736 1781 1782 1802 1807 1808 1818 1870 1859 1860 1871 1907 1861 1862 1872 1875 1863 1844 1700 1918 1991 1980 1936 1992 2009 1981 1959 1937 1925 1926 1919 1876 1837 1833 1885 1864 1845 1865 1899 1927 2062 2073 2106 2142 2063 2042 2107 2070 1998 1970 1943 1886 1810 1809 1789 1797 1756 1737 1693 1614 1471 1455 1527 1627 1675 1684 1682 1691 1982 1744 1745 1765 1544 1783 1838 1839 1983 1950 1984 1999 1887 1900 1893 1866 1834 1846 1757 1766 1746 1738 1739 1784 1819 1877 1920 1971 1928 1878 1820 1811 1752 1777 1951 1985 2003 2043 2020 2030 2108 2088 2064 2044 1987 1901 1986 1929 1873 1826 1791 1790 1778 1712 1692 1775 1827 1776 1767 1740 1713 1728 1758 1759 1741 1800 1828 1847 1888 1908 2077 2100 2119 2065 2038 2021 2013 1972 1909 1993 2000 1960 1952 1938 1879 1880 1881 1705 1607 1628 1638 1615 1606 1597 1665 1664 1659 1637 1585 1545 1519 1502 1491 1479 1437 1399 1364 1462 1490 1528 1532 1566 1508 1478 1458 1430 1345 1289 1326 1327 1264 1164 1156 1112 1035 1034 1044 1139 1163 1161 1021 1133 1111 1110 1066 1080 1050 1007 954 919 960 891 933 890 870 805 751 718 635 686 750 614 557 527 437 396 384 383 440 444 471 509 508 526 593 701 610 702 765 796 797 776 716 728 729 684 611 612 674 703 717 685 739 748 646 633 660 634 613 594 544 571 626 627 749 852 839 917 903 1042 975 1043 1120 1183 1250 1257 1318 1383 1335 1242 1207 1189 1182 1197 1181 1146 1095 1059 1006 910 885 824 851 775 747 823 838 822 869 837 850 715 700 699 698 714 738 849 901 902 916 937 953 974 1017 1018 1019 1020 1065 1160 1465 1407 1302 1159 1109 1145 1079 1015 987 973 1016 988 932 876 848 820 804 821 835 836 786 764 774 785 763 736 682 697 726 713 727 737 683 657 658 632 645 659 605 584 604 603 602 609 631 644 681 696 673 672 671 680 694 695 745 746 761 762 773 772 771 784 819 868 857 803 795 783 744 735 725 693 692 656 630 643 624 670 691 712 724 734 733 759 760 794 802 834 847 867 889 884 896 931 918 900 946 930 945 986 1005 1014 1027 1041 1087 1132 1108 1131 1271 1284 1283 1256 1249 1241 1232 1282 1288 1313 1325 1360 1374 1382 1421 1342 1301 1317 1312 1281 1287 1311 1262 1280 1300 1310 1268 1297 1316 1340 1341 1391 1373 1390 1406 1420 1381 1380 1372 1371 1350 1339 1349 1359 1389 1379 1363 1358 1362 1370 1388 1387 1398 1368 1357 1348 1337 1344 1338 1334 1324 1296 1315 1261 1225 1178 1130 1104 1012 1040 1064 983 1057 1058 1094 1154 1176 1138 1103 1177 1214 1240 1260 1279 1309 1343 1378 1417 1416 1427 1434 1433 1424 1447 1451 1485 1518 1537 1571 1613 1626 1570 1605 1596 1643 1651 1674 1612 1584 1583 1590 1625 1650 1649 1669 1690 1711 1718 1743 1710 1689 1658 1636 1611 1624 1680 1774 1799 1825 1858 1857 1816 1884 1898 1897 1856 1906 1935 1942 1979 2002 2028 1934 1905 1917 1904 1801 1874 1843 1787 1723 1764 1815 1958 1978 2054 2061 2072 2081 2060 2099 2154 2181 2250 2260 2259 2282 2095 2272 2258 2219 2232 2195 2135 2098 2080 2059 2019 2037 2040 2069 2041 2012 1969 1949 1957 1855 1832 1814 1806 1796 1773 1771 1716 1702 1721 1726 1734 1750 1763 1786 1735 1688 1697 1751 1727 1717 1722 1703 1704 1698 1699 1663 1623 1595 1542 1397 1346 1294 1224 1195 1228 1246 1194 1142 1061 1119 1137 1175 1219 1239 1252 1293 1331 1361 1366 1414 1396 1410 1419 1418 1385 1429 1436 1444 1477 1581 1642 1673 1622 1645 1662 1631 1656 1668 1655 1641 1630 1610 1541 1469 1459 1428 1395 1322 1267 1223 1278 1330 1306 1286 1222 1174 1152 1118 1102 1075 996 958 970 1048 1049 1038 1055 1128 1010 966 914 801 894 815 708 620 608 607 619 666 743 652 587 540 531 529 545 553 490 539 575 639 665 830 861 888 881 862 874 939 923 1023 1070 1047 1054 1127 1126 1193 1205 1211 1212 1245 1305 1314 1409 1354 1299 1259 1244 1210 1173 1101 1100 1218 1168 1204 1151 1141 1117 1125 1167 1172 1150 1092 1085 1074 1003 1030 979 1002 1001 1084 1073 1116 1203 1202 1201 1200 1166 1209 1468 1494 1500 1563 1423 1422 1394 1304 1292 1277 1251 1208 1187 1192 1115 1083 1029 1037 1009 938 912 872 844 859 829 809 800 799 808 843 879 878 949 978 965 990 969 977 968 1046 1000 1045 1124 1149 1171 1114 1113 1091 1072 1069 1053 1052 1068 1123 1099 1090 1082 1060 1036 995 1008 964 957 921 877 828 871 842 788 742 720 617 560 618 551 536 537 552 648 810 935 811 789 873 812 813 790 780 854 893 845 768 706 650 649 638 574 565 510 515 489 474 452 453 442 438 446 425 516 662 781 886 880 913 922 927 906 887 814 860 769 707 664 651 599 538 454 498 517 567 598 677 676 663 628 566 483 443 422 399 377 370 369 378 390 405 379 331 332 333 360 371 391 398 434 455 456 491 504 499 500 492 511 546 493 475 494 476 457 505 477 449 465 450 435 430 426 401 306 310 327 352 372 400 407 406 346 319 304 300 279 277 260 290 305 265 272 238 218 221 201 198 176 148 167 140 135 141 130 121 116 122 149 174 180 159 164 177 181 189 205 222 209 230 249 273 274 311 296 316 347 363 357 373 380 408 411 428 621 882 997 1024 936 1011 1076 1039 991 940 897 863 816 754 709 640 576 568 588 622 687 541 501 518 512 519 484 461 418 381 436 495 554 532 547 580 600 667 791 865 883 864 855 831 928 980 971 981 1004 941 959 1056 1062 982 942 998 992 1031 1071 1153 1129 1213 1274 1332 1355 1432 1454 1495 1487 1460 1501 1505 1564 1582 1557 1531 1514 1515 1523 1524 1536 1632 1565 1516 1488 1525 1552 1526 1517 1543 1507 1489 1496 1483 1484 1461 1446 1445 1441 1411 1369 1307 1229 1356 1333 1308 1336 1415 1405 1386 1367 1347 1323 1295 1275 1247 1230 1196 1093 1063 1025 929 895 792 710 641 755 875 898 924 950 951 925 817 721 688 668 577 548 520 581 629 653 711 793 654 582 578 533 466 462 467 589 590 722 856 908 907 915 984 972 1026 1013 1077 1105 1188 1206 1179 1231 1263 1269 1253 1254 1270 1236 1248 1255 1226 1169 1158 1180 1162 1215 1155 1078 1106 1086 1107 1143 1144 1032 1033 999 944 952 985 967 943 926 832 723 669 623 555 506 549 642 513 583 655 678 732 818 833 846 899 909 866 782 756 757 770 758 690 689 679 601 591 556 521 502 542 569 485 507 561 543 550 522 503 534 570 585 579 562 523 468 469 524 525 625 592 586 470 478 463 451 439 431 423 402 382 361 374 395 320 307 297 298 308 280 261 257 262 253 250 242 258 266 263 254 223 213 211 202 231 246 259 281 282 255 233 219 214 267 283 284 313 323 348 338 322 344 387 343 321 336 353 393 375 342 386 335 312 334 299 309 337 392 385 409 419 447 479 472 595 719 787 825 766 636 572 530 558 704 798 777 637 730 740 661 741 826 778 840 806 564 497 487 448 424 481 441 480 496 596 563 514 486 458 429 432 412 354 324 314 285 268 239 206 203 227 243 251 286 301 328 349 350 394 403 364 388 355 325 291 317 302 264 236 216 235 224 215 240 234 195 192 193 183 182 184 207 185 170 169 165 160 156 161 150 145 151 166 171 175 186 199 212 225 237 270 275 269 287 339 345 366 365 389 413 420 445 464 482 488 559 615 705 752 767 731 827 858 904 934 993 976 961 1184 1220 1243 1198 1272 1216 1170 1233 1290 1303 1265 1266 1319 1365 1375 1273 1291 1320 1186 1185 1199 1217 1221 1227 1237 1234 1190 1157 1121 1081 1067 1022 994 948 947 911 905 807 753 841 675 606 616 597 647 528 473 459 433 427 414 415 404 416 417 421 397 362 329 315 303 292 278 276 244 217 190 187 173 168 188 196 228 293 318 340 356 367 358 359 376 330 252 295 294 271 247 194 178 155 147 139 137 118 117 120 111 106 109 114 128 143 144 124 134 146 154 172 158 153 152 157 142 136 133 127 123 126 113 100 103 95 93 90 87 71 79 82 86 89 81 74 76 92 80 70 69 52 50 61 65 48 53 59 68 55 42 39 45 54 72 77 88 96 91 78 66 49 62 46 32 33 40 35 41 34 36 43 63 85 75 67 56 38 31 28 26 13 22 27 29 25 14 7 6 2 1 4 9 11 10 5 3 8 15 17 24 21 20 23 19 18 16 12 30 37 44 47 60 64 51 58 57 73 84 102 83 99 98 107 115 132 163 138 129 125 119 97 94 105 108 104 101 110 112 131 162 179 197 208 226 245 288 289 256 241 232 220 210 200 191 204 229 248 326 341 351 368 410 460 535 573 779 853 892 989 1028 1051 1134 1140 1096 1088 955 962 920 956 1097 1191 1089 963 1098 1122 1135 1147 1136 1165 1148 1235 1351 1328 1258 1238 1400 1492 1695 1706 1732 1793 1882 1821 1803 1747 1760 1742 1694 1670 1685 1639 1576 1520 1481 1442 1472 1509 1616 1731 1753 1792 1902 1944 2022 2144 2446 2547 2598 2527 2498 2497 2482 2455 2445 2401 2376 2335 2314 2306 2283 2305 2196 2143 2234 2324 2454 2466 2538 2630 2812 3219 3226 3513 3646 3694 4078 4218 4294 3917 3700 3309 3302 3195 3178 3122 2832 2831 2844 2860 2612 2865 2864 2873 3330 3505 3346 2917 2726 2262 1889 1939 1994 2197 2499 2014 1973 2004 2031 2029 2032 2045 2074 2528 2539 2557 2548 2599 2807 2828 2842 2829 2843 2830 2483 2388 2346 2198 2120 2089 2075 2055 2015 1961 1930 1812 1921 1840 1910 1848 1794 1940 2046 1945 1962 1988 1974 2090 2155 2136 2284 2005 2010 2016 2017 2047 2011 2018 2023 2024 1953 1954 1995 1955 1975 2056 2033 2066 2001 2006 2082 2172 2605 2587 2588 2718 2687 2606 2501 2568 2659 2632 2502 2513 2529 2641 2660 2695 2772 2787 2906 2866 3098 3109 3144 3171 3179 3455 3551 3379 3366 3138 3110 3260 3202 3067 3023 2950 2897 2977 3004 2976 2788 2753 2747 2925 2970 3032 2969 2938 2884 2853 2794 2728 2642 2573 2521 2530 2559 2438 2389 2325 2307 2285 2235 2173 2121 2126 2127 2145 2156 2174 2157 2146 2109 2199 2336 2426 2337 2447 2484 2540 2623 2669 2681 2662 2614 2661 2680 2668 2688 2696 2748 2777 2749 2813 2754 2918 2951 3099 3131 3196 3231 3245 3386 3342 3283 3256 3246 3261 3358 3429 3496 3438 3387 3310 3187 3174 3186 3180 3154 3153 3068 3024 2891 2834 2789 2643 2670 2697 2706 2779 2833 2899 3075 3033 2990 2898 2778 2750 2808 2705 2531 2427 2347 2439 2251 2175 2110 2236 2237 2238 2348 2273 2448 2514 2364 2252 2200 2349 2356 2456 2457 2471 2440 2365 2379 2263 2158 2201 2239 2264 2265 2357 2380 2485 2402 2350 2220 2159 2160 2274 2315 2351 2286 2147 2128 2221 2212 2213 2352 2458 2353 2253 2287 2240 2101 2102 2202 2203 2354 2504 2505 2532 2626 2781 2755 2893 2907 3042 3034 3116 3198 3274 3369 3347 3322 3284 3232 3207 3206 3250 3205 3197 3145 3115 3005 2875 2735 2721 2617 2503 2472 2664 2700 2645 2561 2589 2616 2560 2450 2449 2550 2625 2689 2773 2795 2708 2575 2574 2607 2615 2698 2729 2762 2707 2624 2644 2663 2845 3011 2878 2959 2900 2919 2971 3012 2920 2846 2774 2671 2699 2720 2738 2780 2835 2892 2984 3080 3050 2926 2991 3061 3123 3203 3214 3237 3181 3204 3311 3331 3406 3418 3468 3462 3461 3609 3552 3591 3597 3629 3659 3661 3668 3669 3687 3626 3558 3415 3401 3425 3456 3511 3577 3598 3673 3605 3610 3674 3748 3741 3781 3851 3992 3940 4052 4135 4148 4144 4134 4122 4196 4258 4244 4203 4183 4260 4340 4391 4234 4193 4269 4370 4378 4426 4428 4434 4438 4440 4444 4409 4402 4379 4376 4361 4359 4245 4250 4264 4280 4347 4346 4295 4289 4286 4284 4191 4192 4206 4198 4237 4199 4136 4048 4036 3985 4004 4023 4072 4018 3972 3958 4002 3968 4062 4082 4068 4056 3973 4030 4073 4067 4071 4100 4087 4076 4088 4079 4033 4064 4108 4092 4096 4081 4060 4055 4034 4003 4010 4050 4044 4040 4029 4025 4051 4095 4115 4131 4080 4106 4110 4103 4074 4058 4005 3984 4019 4035 4020 4045 4047 4026 4006 3950 3877 3791 3754 3797 3861 3933 3929 3902 3839 3790 3723 3643 3570 3664 3692 3618 3631 3640 3655 3738 3815 3827 3835 3770 3768 3750 3805 3828 3853 3862 3894 3893 3909 3900 3886 3866 3899 3930 3919 3892 3906 3975 3997 4011 4057 4075 4104 4121 4168 4176 4207 4169 4151 4146 4126 4097 4012 4013 3959 3957 3996 3974 4024 3991 3960 3990 4028 4043 4027 3979 3969 4014 4041 4063 4091 4090 4109 4124 4125 4147 4159 4166 4158 4153 4145 4129 4133 4138 4140 4162 4181 4188 4197 4211 4275 4214 4190 4164 4143 4160 4142 4141 4123 4101 4059 3980 3941 3910 3901 3920 3895 3878 3873 3854 3858 3840 3819 3798 3760 3713 3719 3649 3601 3561 3501 3477 3400 3374 3409 3396 3354 3307 3308 3258 3241 3210 3211 3223 3277 3321 3293 3326 3375 3398 3364 3390 3422 3447 3486 3517 3554 3579 3536 3584 3632 3665 3703 3739 3755 3778 3792 3773 3806 3846 3847 3887 3888 3841 3761 3745 3704 3671 3644 3619 3580 3525 3526 3555 3466 3546 3547 3564 3581 3582 3286 3278 3224 3191 3167 3166 3190 3158 3201 3161 3157 3160 3147 3126 3112 3027 3016 3037 2981 2935 2880 2837 2732 2564 2602 2650 2710 2817 2904 2942 2987 3036 3087 3140 3184 3093 3035 2974 2879 2998 3062 3077 3146 3173 3233 3292 3332 3363 3405 3446 3485 3516 3535 3571 3600 3656 3683 3628 3599 3590 3567 3489 3502 3521 3524 3503 3453 3452 3433 3408 3383 3350 3362 3335 3291 3270 3249 3229 3175 3125 3059 3045 2973 2980 2848 2740 2741 2791 2702 2563 2576 2591 2610 2619 2685 2635 2649 2634 2751 2731 2701 2693 2692 2730 2815 2941 2910 2876 2945 3007 3128 3119 3058 3102 3209 3275 3290 3345 3276 3254 3252 3183 3103 3076 3073 3086 3053 3044 2836 2816 2856 2934 3026 3106 3165 3228 3269 3306 3334 3404 3465 3443 3389 3320 3268 3257 3361 3373 3442 3432 3421 3367 3360 3403 3413 3407 3488 3534 3539 3540 3630 3697 3744 3783 3891 3818 3860 3845 3872 3808 3824 3753 3718 3642 3682 3737 3743 3663 3613 3625 3587 3560 3506 3493 3464 3523 3566 3606 3563 3522 3500 3431 3371 3349 3298 3305 3248 3200 3239 3247 3297 3313 3344 3325 3394 3450 3476 3545 3569 3647 3648 3680 3681 3702 3796 3804 3786 3767 3772 3803 3852 3905 3882 3871 3865 3838 3918 3898 3874 3837 3817 3801 3777 3784 3785 3795 3802 3708 3736 3747 3696 3624 3592 3553 3512 3578 3589 3596 3634 3658 3637 3654 3662 3695 3612 3636 3660 3691 3657 3623 3586 3532 3481 3474 3482 3533 3544 3483 3470 3437 3419 3475 3459 3445 3449 3441 3412 3393 3370 3319 3304 3296 3222 3199 3164 3134 3100 2979 2922 2985 2931 2940 2992 3111 3172 3133 3052 3071 2997 3015 2978 3084 3118 3189 3221 3253 3303 3267 3343 3392 3417 3440 3531 3530 3588 3583 3622 3652 3653 3679 3690 3716 3759 3717 3735 3765 3766 3844 3934 3976 3834 3809 3814 3823 3826 3832 3831 3830 3822 3800 3782 3742 3758 3706 3670 3635 3611 3543 3497 3463 3426 3492 3457 3353 3333 3251 3188 3220 3323 3381 3439 3458 3480 3388 3380 3262 3263 3238 3266 3312 3348 3402 3448 3473 3499 3498 3495 3559 3585 3616 3562 3627 3676 3675 3711 3734 3677 3688 3699 3651 3712 3707 3678 3639 3617 3565 3514 3520 3469 3430 3382 3427 3416 3359 3324 3285 3215 3156 3092 3025 2901 2861 2885 2790 2690 2722 2673 2796 2736 2672 2757 2939 2972 2909 2927 2921 3006 3051 3070 3155 3132 3117 3124 3105 3057 2961 2960 3069 2944 2908 2814 2646 2522 2358 2316 2183 2184 2222 2185 2275 2359 2523 2590 2647 2756 2608 2506 2395 2338 2186 2148 2214 2215 2390 2507 2551 2486 2562 2459 2451 2360 2161 2137 2308 2223 2361 2428 2609 2682 2758 2854 2902 2903 2928 2847 2809 2929 2930 2775 2633 2683 2618 2487 2403 2224 2162 2339 2396 2515 2366 2367 2525 2524 2541 2648 2723 2763 2764 2820 2665 2684 2569 2552 2266 2204 2225 2241 2242 2243 2176 2340 2429 2473 2516 2554 2553 2691 2798 2932 2797 2765 2855 2886 2948 2986 3072 3135 3101 3139 3182 3240 3288 3395 3428 3460 3515 3484 3451 3420 3372 3289 3216 3208 3085 3043 2993 2933 2867 2759 2739 2709 2674 2381 2254 2138 2362 2244 2404 2405 2415 2103 2187 2295 2430 2368 2431 2397 2542 2369 2122 2296 2245 2111 2188 2129 2341 2452 2406 2432 2460 2467 2474 2508 2433 2565 2468 2407 2416 2309 2139 2104 2370 2398 2488 2434 2297 2149 2205 2163 2276 2277 2399 2489 2490 2510 2711 2579 2461 2317 2299 2298 2383 2382 2408 2246 2177 2164 2150 2112 2130 2206 2189 2113 2140 2417 2123 2226 2247 2418 2475 2580 2667 2636 2766 2823 2887 2849 2838 2894 2822 2592 2652 2651 2821 2923 2954 3028 3046 2999 3017 2953 2911 2869 2799 2783 2675 2578 2533 2509 2577 2666 2782 2868 2943 2949 2952 2994 3078 3107 3264 3212 3159 3185 3234 3279 3314 3299 3225 3176 3104 3137 3136 3120 3217 3081 3000 2966 2936 3029 3063 3094 3095 3079 3018 3008 3047 3168 3351 3355 3336 3280 3193 3129 3019 3013 2895 2785 2784 2555 2329 2318 2391 2453 2581 2653 2767 2786 2912 2824 2913 2825 2742 2654 2462 2355 2267 2216 2227 2131 2190 2278 2268 2165 2166 2124 2167 2168 2217 2256 2248 2255 2288 2300 2310 2301 2279 2330 2319 2326 2342 2332 2331 2280 2191 2151 2114 2048 2067 2049 2025 1963 1931 1932 1903 1868 1867 1851 1850 1849 1822 1804 1829 1830 1946 1989 2007 2026 2057 2058 2076 2096 2141 2192 2228 2207 2169 2034 2068 1911 1964 2115 2039 2078 2193 2208 2229 2302 2343 2410 2477 2628 2637 2676 2714 2620 2715 2896 2924 2963 2988 2957 3009 3014 3022 3060 3090 3149 3114 3039 3002 2983 3001 2982 2968 2962 2967 3113 3055 3127 2996 2975 2947 2905 2881 2956 3021 2955 2915 2877 2937 2889 2826 2771 2713 2745 2724 2737 2800 2801 2862 2888 2871 2839 2760 2744 2743 2770 2733 2712 2769 2656 2627 2583 2570 2603 2534 2535 2593 2584 2492 2476 2441 2321 2320 2289 2269 2385 2312 2333 2409 2311 2281 2249 2491 2436 2419 2400 2372 2363 2371 2384 2435 2511 2543 2582 2655 2703 2768 2914 2870 2946 3065 3089 3088 2995 3030 3048 3097 3020 3096 3141 3169 3235 3074 3038 3054 3064 3148 3300 3384 3356 3410 3478 3508 3518 3537 3527 3614 3645 3733 3726 3729 3710 3757 3799 3811 3843 3881 3936 3915 3904 3825 3714 3621 3573 3538 3479 3454 3423 3337 3327 3385 3434 3376 3424 3467 3487 3357 3435 3574 3556 3548 3568 3557 3549 3368 3242 3315 3328 3411 3541 3494 3490 3602 3749 3727 3821 3491 3528 3638 3672 3774 3763 3776 3775 3793 3812 3864 3884 3924 3966 3983 3965 3982 3945 3981 4017 4046 4031 4008 4042 4061 4066 4118 4175 4172 4178 4236 4292 4301 4241 4210 4217 4156 4085 3956 3947 4077 4107 4117 4130 4150 4163 4179 4186 4195 4202 4149 4167 4173 4180 4194 4201 4213 4215 4216 4232 4254 4291 4323 4267 4243 4225 4182 4155 4083 4089 4112 4113 4114 4094 4084 3946 3955 3922 3911 3971 3954 3907 3883 3944 3964 3995 4038 4054 4070 4105 4021 3994 3953 3989 4032 4111 4127 4165 4132 4119 4093 3977 3978 3932 3963 3937 3962 3926 3952 3943 3925 3993 4177 4053 3988 3987 4001 4000 3951 3938 3921 3903 3867 3849 3787 3746 3732 3721 3709 3720 3666 3620 3572 3507 3471 3365 3391 3685 3684 3686 3762 3807 3810 3820 3740 3731 3725 3698 3724 3730 3756 3751 3857 3848 3856 3816 3855 3863 3880 3879 4007 3999 3961 3875 3869 3868 3769 3842 3859 3914 3931 3935 4065 3998 4016 3986 3970 3942 4015 4049 4069 4098 4116 4139 4170 4184 4204 4212 4222 4228 4227 4288 4223 4229 4233 4238 4249 4252 4290 4307 4342 4332 4329 4338 4322 4313 4298 4259 4185 4235 4261 4285 4270 4255 4276 4271 4262 4265 4272 4247 4239 4230 4219 4205 4200 4209 4220 4224 4231 4240 4256 4266 4287 4296 4304 4310 4317 4319 4356 4348 4349 4325 4312 4309 4331 4314 4300 4303 4302 4308 4311 4330 4335 4315 4318 4343 4351 4352 4360 4362 4367 4371 4373 4386 4414 4420 4405 4401 4400 4398 4397 4399 4493 4498 4494 4483 4499 4518 4515 4522 4529 4478 4421 4412 4415 4396 4375 4321 4327 4337 4353 4345 4350 4344 4336 4333 4326 4339 4320 4316 4297 4248 4281 4273 4257 4253 4279 4299 4306 4293 4251 4274 4357 4380 4368 4381 4384 4423 4439 4431 4435 4471 4504 4561 4597 4595 4599 4598 4532 4514 4467 4462 4452 4424 4427 4464 4418 4413 4408 4403 4389 4387 4385 4358 4365 4383 4395 4417 4437 4469 4480 4453 4425 4419 4407 4429 4445 4441 4442 4447 4436 4443 4432 4448 4446 4449 4450 4455 4465 4470 4463 4472 4473 4482 4476 4479 4481 4484 4485 4486 4500 4520 4530 4525 4521 4511 4516 4533 4572 4580 4578 4579 4568 4570 4567 4553 4544 4538 4535 4527 4534 4523 4512 4501 4495 4489 4491 4509 4496 4475 4474 4468 4456 4488 4492 4524 4505 4502 4513 4517 4528 4539 4546 4557 4562 4564 4560 4550 4548 4565 4576 4573 4569 4577 4575 4581 4585 4587 4586 4583 4566 4582 4592 4594 4600 4614 4619 4641 4633 4624 4616 4607 4615 4625 4629 4632 4636 4639 4642 4643 4605 4613 4637 4644 4645 4651 4658 4650 4647 4635 4631 4621 4602 4603 4559 4552 4549 4589 4593 4556 4545 4542 4510 4519 4506 4466 4460 4458 4457 4451 4497 4540 4547 4612 4634 4623 4620 4660 4656 4652 4640 4628 4591 4531 4433 4508 4430 4388 4366 4328 4278 4152 4037 3913 3885 3752 3890 3949 4128 4161 4171 4277 4363 4263 4226 4246 4268 4334 4305 4341 4174 3948 4137 3897 3780 3728 3667 3615 3472 3399 3163 3151 3130 3003 2717 2694 2631 2601 2604 2613 2727 2600 2586 2558 2549 2500 2378 2377 2520 2622 2792 2793 2746 2761 2752 2716 2874 3170 3213 3227 3295 3377 3604 3701 3650 3939 4283 4372 4374 4364 4377 4390 4411 4454 4507 4536 4551 4563 4601 4626 4609 4608 4588 4630 4638 4648 4649 4654 4661 4659 4655 4657 4653 4662 4663 4646 4627 4610 4584 4526 4537 4590 4596 4558 4543 4541 4487 4461 4404 4354 4324 4221 3967 3908 4086 3923 3715 3608 3510 3436 3301 3244 2572 2519 2425 2597 2621 2465 2546 2640 2916 3414 3764 3397 3693 4154 4157 4369 4392 4393 4410 4459 4490 4503 4554 4574 4571 4606 4604 4622 4618 4617 4611 4555 4477 4406 4422 4416 4394 4382 4355 4282 4242 4187 4208 4189 3850 3794 3789 4022 4039 4120 4102 4099 4009 3870 3916 3876 3889 3912 3928 3927 3896 3788 3833 3836 3829 3813 3779 3771 3722 3705 3689 3641 3633 3593 3603 3595 3607 3594 3576 3575 3550 3542 3519 3504 3529 3509 3444 3352 3340 3329 3339 3338 3316 3281 3259 3236 3192 3162 3150 3040 3108 3091 3049 2989 2964 2890 2840 2776 2719 2810 2704 2677 2657 2638 2594 2571 2537 2481 2512 2480 2422 2442 2374 2413 2469 2494 2545 2678 2686 2629 2595 2639 2585 2470 2443 2218 2036 2035 2053 2117 2091 2085 2079 2116 2152 2210 2322 2345 2421 2412 2420 2411 2464 2518 2493 2437 2517 2544 2479 2463 2478 2566 2536 2386 2392 2344 2373 2290 2334 2387 2327 2291 2304 2328 2292 2271 2179 2105 2084 2071 2027 1990 1977 2052 2051 2083 2125 2303 2270 2230 2209 2178 2170 2132 2097 2050 1996 1965 1976 1836 1841 1890 1913 1941 1912 1933 1956 1947 1922 1894 1883 1835 1823 1798 1768 1748 1719 1720 1733 1762 1852 1824 1842 1853 1891 1813 1795 1779 1769 1754 1749 1730 1708 1677 1671 1666 1681 1648 1629 1567 1533 1555 1602 1608 1601 1618 1594 1560 1549 1559 1573 1593 1635 1653 1660 1676 1686 1696 1707 1715 1729 1761 1724 1714 1701 1683 1657 1652 1644 1647 1640 1617 1600 1586 1572 1554 1548 1522 1511 1510 1497 1529 1538 1547 1553 1599 1592 1634 1646 1633 1598 1591 1558 1546 1521 1486 1474 1470 1463 1438 1425 1412 1403 1298 1321 1329 1276 1285 1352 1376 1401 1413 1426 1443 1448 1464 1506 1512 1475 1482 1480 1466 1384 1353 1402 1439 1449 1456 1498 1503 1513 1504 1619 1603 1556 1493 1499 1476 1473 1457 1452 
