Best cost: 223142
Time: 3968.41
Route:
1434 1356 1311 1233 1259 1258 1189 1133 1120 1107 1039 1047 1001 963 930 994 1021 1134 1067 1012 945 988 1002 1026 1087 1135 1010 1003 926 940 956 964 977 943 915 984 1004 1064 1084 1104 1168 1234 1350 1273 1357 1419 1521 1602 1596 1542 1530 1495 1431 1445 1403 1364 1326 1266 1247 1261 1289 1236 1148 1138 1106 1113 1029 1005 973 934 913 916 979 1054 1034 1019 1092 1139 1099 1158 1207 1276 1339 1248 1304 1391 1394 1460 1478 1447 1461 1404 1340 1325 1274 1300 1262 1192 1140 1065 1006 966 1022 924 935 965 912 894 724 715 696 683 754 888 879 819 834 844 824 734 691 675 624 567 612 672 705 761 714 713 679 726 769 866 788 708 665 661 671 655 693 635 666 622 621 677 748 759 791 781 833 773 859 962 976 1000 1091 1071 1051 991 927 871 832 815 795 706 712 725 762 787 831 797 830 873 858 918 1090 1116 1131 1224 1257 1222 1280 1328 1197 1240 1210 1132 1119 1100 1125 1147 1150 1202 1246 1418 1554 1672 1781 1816 1921 1963 2046 2097 2086 1920 1992 2053 2185 2128 1966 1902 1815 1638 1712 1800 1888 1833 1775 1691 1562 1525 1584 1572 1488 1336 1471 1457 1519 1509 1456 1400 1335 1375 1428 1334 1368 1438 1388 1399 1505 1612 1690 1740 1733 1771 1858 1870 1914 1940 2092 2151 2168 2261 2322 2340 2404 2415 2435 2439 2416 2342 2319 2425 2398 2442 2434 2381 2374 2362 2320 2316 2304 2216 2188 2156 2137 2136 2057 2037 1943 2006 1981 2005 2125 2229 2283 2339 2333 2420 2356 2296 2252 2212 2149 2312 2393 2458 2526 2568 2518 2547 2640 2670 2699 2728 2734 2880 2864 2787 2704 2629 2607 2626 2597 2573 2496 2468 2502 2461 2423 2376 2272 2251 2318 2411 2452 2488 2535 2558 2592 2649 2625 2544 2456 2440 2412 2445 2365 2287 2242 2222 2150 1931 1854 1760 1716 1801 1808 1730 1722 1726 1874 1908 1891 1919 2147 2270 2371 2427 2481 2525 2534 2486 2429 2392 2596 2484 2417 2380 2345 2160 2127 1994 1910 1975 2055 2134 2170 2226 2326 2305 2241 2183 2132 2050 1950 1918 1860 1885 1824 1709 1732 1788 1796 1772 1737 1719 1660 1607 1382 1184 1203 1305 1389 1331 1174 1169 1102 1069 967 982 936 907 909 955 1016 971 975 900 850 870 861 799 806 835 877 878 887 906 959 1013 1035 1096 1109 1062 1130 1167 1243 1201 1250 1272 1330 1317 1299 1238 1115 1059 957 1032 1081 1118 1181 1253 1217 1265 1318 1397 1381 1411 1396 1469 1502 1678 1715 1681 1721 1761 1802 1811 1873 1937 1983 1961 1876 1865 1868 1953 1990 1958 2051 2175 2274 2297 2330 2443 2454 2473 2616 2635 2571 2575 2548 2590 2554 2654 2701 2759 2825 2820 2700 2754 2833 2860 2884 2893 2891 2919 2989 2976 2921 2908 2834 2848 2932 2923 2964 2978 2947 2851 2795 2768 2760 2720 2694 2727 2764 2802 2803 2789 2762 2726 2666 2634 2631 2660 2687 2622 2578 2531 2546 2638 2710 2755 2739 2757 2773 2841 2883 2866 2832 3012 2882 2909 2894 2929 2849 3031 3079 3063 2990 2942 2943 2936 2903 2870 2821 2868 3040 3038 3088 3129 3154 3208 3240 3210 3173 3130 3077 3055 3061 3116 3133 3118 3087 3106 3086 3059 2993 2952 2915 2874 2801 2784 2722 2624 2586 2642 2692 2617 2431 2344 2321 2303 2203 2106 2080 2008 1988 1930 1893 2002 2121 2246 2293 2382 2414 2508 2619 2703 2585 2663 2711 2778 2872 2906 2869 2965 2994 3020 3123 3141 3179 3096 3070 3056 2963 2888 2835 2806 2819 2916 2991 2969 2798 2713 2690 2673 2659 2745 2680 2668 2564 2501 2462 2389 2385 2286 2237 2277 2281 2302 2355 2379 2437 2401 2337 2317 2410 2472 2490 2517 2541 2589 2611 2610 2685 2738 2641 2688 2646 2601 2537 2540 2582 2632 2648 2679 2772 2853 2905 2895 2980 2961 2809 2791 2878 2939 2941 2958 3080 3069 3095 3105 3162 3206 3260 3305 3243 3188 3192 3168 3135 3119 3186 3155 3121 3109 3169 3159 3181 3189 3237 3360 3325 3279 3277 3221 3222 3238 3299 3328 3407 3450 3457 3543 3553 3520 3475 3402 3361 3289 3379 3323 3381 3483 3626 3731 3683 3552 3472 3487 3539 3615 3750 3838 3730 3773 3843 3830 4052 4083 4136 4188 4235 4243 4306 4333 4383 4427 4396 4414 4461 4540 4625 4687 4645 4703 4759 4838 4903 4975 5006 5025 5041 4981 4896 4893 4772 4700 4677 4611 4586 4494 4543 4643 4711 4771 4823 4907 4952 4966 4995 5053 5035 5096 5165 5070 5081 5158 5090 5115 5193 5297 5273 5336 5321 5425 5450 5426 5372 5303 5179 5263 5381 5427 5492 5557 5631 5679 5745 5784 5746 5725 5705 5706 5680 5654 5608 5578 5558 5514 5469 5451 5335 5292 5217 5388 5360 5268 5258 5162 5353 5311 5344 5271 5169 5105 5042 4959 4898 4769 4620 4569 4483 4428 4375 4293 4360 4318 4340 4364 4441 4426 4462 4405 4266 4105 4072 4017 4047 3963 3865 3822 3777 3860 3895 3995 4045 4091 4141 4224 4278 4422 4297 4213 4139 4247 4353 4320 4229 4203 4251 4270 4281 4350 4389 4367 4415 4419 4504 4552 4604 4549 4512 4473 4505 4479 4402 4361 4368 4432 4449 4413 4436 4395 4352 4338 4308 4210 4180 4129 4107 4218 4146 4106 4150 3960 3826 3789 3764 3703 3727 3869 3919 4025 4061 4043 4019 4024 4069 4118 4087 4027 4018 3992 3990 3959 3935 3786 3598 3416 3414 3326 3331 3288 3292 3359 3435 3532 3458 3567 3516 3484 3344 3201 3111 3078 3114 3257 3287 3393 3495 3620 3558 3609 3423 3383 3338 3294 3262 3213 3113 3084 3091 3046 3021 3054 3097 2988 2970 3120 3199 3207 3223 3254 3312 3363 3394 3533 3678 3708 3696 3636 3604 3535 3461 3371 3499 3521 3439 3418 3348 3297 3215 3122 3200 3194 3226 3205 3127 2981 2982 3072 3143 3101 3090 3067 3002 2995 2928 2877 2786 2775 2747 2691 2664 2695 2639 2636 2603 2576 2552 2507 2475 2446 2441 2579 2545 2644 2681 2708 2737 2769 2822 2836 2933 3027 3036 3081 3006 2957 2983 2999 2917 2861 2845 2855 2810 2756 2729 2709 2647 2566 2509 2489 2491 2405 2424 2459 2503 2628 2609 2656 2676 2653 2569 2740 2750 2723 2707 2689 2716 2767 2674 2705 2671 2661 2721 2712 2774 2857 3050 3131 3182 3246 3264 3282 3334 3324 3366 3314 3473 3474 3548 3638 3500 3465 3517 3549 3673 3698 3742 3633 3582 3522 3480 3352 3195 3197 3258 3285 3332 3387 3456 3396 3211 3149 3183 3142 3089 2948 2974 3000 3030 3051 3085 3176 3212 3216 3134 3028 3065 3071 2871 2925 2907 2953 2985 3062 3138 3163 3110 3147 3196 3148 3167 3185 3263 3290 3280 3251 3296 3273 3309 3367 3347 3572 3709 3466 3424 3545 3602 3716 3794 3851 3832 3814 3831 3688 3658 3561 3377 3603 3584 3565 3583 3926 4094 4128 4185 4225 4198 4231 4284 4275 4633 4660 4619 4760 4931 4853 4808 4781 4638 4634 4684 4701 4719 4671 4632 4563 4631 4580 4579 4626 4608 4644 4617 4653 4659 4646 4640 4997 4955 4923 4945 4897 4834 4815 4675 4690 4727 4765 4852 4948 4977 4967 4944 5030 5051 5095 5111 5167 5130 5163 5185 5204 5392 5455 5476 5542 5582 5638 5693 5732 5714 5637 5664 5636 5581 5518 5475 5499 5541 5565 5635 5540 5517 5433 5397 5332 5228 5369 5323 5361 5316 5293 5188 5198 5007 4962 4938 5058 5145 5177 5152 5229 5237 5324 5366 5275 5380 5272 5230 5301 5359 5354 5330 5396 5317 5267 5234 5276 5264 5205 5187 5128 5171 5232 5261 5186 5146 5136 5103 4933 4867 4830 4805 4750 4704 4726 4886 4876 4856 4831 4758 4728 4670 4658 4283 4216 4191 4152 4160 4177 4131 4219 4239 4153 4184 4207 4161 4073 4044 4050 4051 3981 3925 3847 3864 3868 3911 4012 4036 3969 3920 3819 3896 3763 3725 3665 3587 3642 3724 3779 3809 3877 3846 3882 4065 4089 4099 4176 4227 4263 4294 4334 4190 4164 4167 4234 4093 4109 4154 4169 4196 4242 4261 4295 4286 4273 4226 4205 4116 4079 4086 4170 4221 4282 4307 4238 4187 4110 4082 4066 3983 3932 3978 4056 3944 3947 3936 3900 3862 3813 3901 3949 3974 3973 3909 3807 3715 3648 3606 3571 3504 3468 3491 3455 3388 3385 3616 3679 3704 3717 3793 3751 3892 3840 3801 3729 3575 3601 3542 3515 3530 3537 3557 3628 3721 3760 3818 3790 3799 3933 3915 3904 3924 3975 3994 3906 3863 4001 3850 3791 3744 3706 3527 3629 3431 3355 3322 3308 3218 3140 3190 3235 3364 3386 3448 3470 3488 3430 3409 3343 3304 3252 3267 3239 3165 3166 3094 3044 3009 2971 2938 2910 2856 2892 2901 2935 2914 2886 2807 2748 2808 2837 2865 2984 3022 3073 3145 3156 3126 3172 3139 3152 3117 3164 3170 3150 3224 3369 3266 3372 3404 3395 3307 3353 3451 3476 3503 3560 3502 3622 3699 3632 3590 3526 3335 3350 3420 3544 3562 3589 3611 3686 3743 3762 3754 3986 4046 4103 4157 4325 4378 4319 4252 4315 4272 4376 4330 4230 4063 4145 4172 4309 4317 4347 4398 4488 4572 4623 4555 4548 4513 4545 4570 4534 4496 4516 4475 4403 4406 4417 4481 4469 4457 4521 4409 4357 4331 4390 4349 4341 4337 4500 4553 4532 4447 4531 4528 4561 4605 4657 4791 4780 4843 4860 4891 4813 4862 4915 5061 5089 5153 5190 5173 5099 5075 5110 5072 5046 4987 4976 4996 5023 4902 4890 4818 4734 4804 4699 4651 4614 4557 4612 4649 4589 4622 4678 4752 4855 4866 4928 4989 5210 5151 5031 4957 4922 4777 4807 4749 4537 4674 4713 4821 4885 4937 5116 5247 5121 5148 5057 5102 5170 5166 5200 5269 5196 5123 5066 4978 4934 4892 4873 4921 4859 4795 4607 4567 4446 4642 4681 4712 4695 4616 4599 4506 4429 4460 4456 4397 4372 4305 4241 4214 4143 4081 4028 4005 3914 3844 3806 3888 3872 3867 3886 3950 4000 4031 4108 4133 4121 4101 4186 4264 4271 4302 4276 4237 4159 4135 4076 4088 4098 4158 4208 4256 4249 4299 4374 4321 4345 4444 4421 4484 4463 4518 4542 4581 4519 4556 4637 4694 4747 4783 4768 4731 4627 4592 4621 4683 4744 4825 4884 4787 4656 4641 4558 4487 4452 4400 4328 4248 4085 4097 3927 3827 3768 3747 3885 3866 3812 3772 3647 3693 3723 3946 3939 3996 4033 4057 3967 4071 4058 4053 4142 4151 4144 4182 4200 4301 4359 4371 4423 4520 4588 4737 4846 4879 5039 4979 4919 4794 4710 4693 4602 4495 4450 4365 4316 4257 4279 4262 4416 4560 4647 4766 4865 4717 4786 4803 4851 4904 4960 5054 5024 4993 4936 4871 4776 4880 4872 4742 4663 4655 4591 4544 4418 4524 4486 4535 4562 4587 4665 4680 4802 4809 4736 4639 4595 4530 4437 4442 4478 4497 4522 4536 4501 4517 4551 4606 4735 4775 4801 4829 4850 4920 4889 5026 4982 4986 5119 5082 5017 4971 4824 4877 5144 5224 5142 5093 5064 5050 4968 4984 5027 5088 5183 5233 5127 5137 4969 5060 5113 5207 5124 5120 5249 5214 5125 5100 5033 5313 5280 5406 5382 5401 5195 5047 5001 4908 5002 5129 5156 5221 5373 5431 5432 5390 5402 5453 5473 5562 5515 5496 5430 5413 5347 5298 5385 5218 5288 5327 5375 5337 5279 5452 5493 5494 5472 5495 5538 5560 5613 5612 5633 5685 5686 5614 5539 5561 5660 5659 5710 5750 5726 5709 5787 5895 5846 5896 5876 5847 5788 5809 5767 5727 5687 5661 5688 5662 5563 5564 5497 5454 5391 5348 5368 5474 5498 5516 5615 5634 5663 5689 5728 5770 5769 5768 5830 5810 5848 5897 5914 5934 5976 6070 6217 6260 6301 6335 6513 6450 6409 6348 6353 6303 6194 6244 5977 6040 6107 6071 6041 6015 5935 5877 5811 5771 5729 5690 5711 5730 5712 5713 5691 5692 5752 5751 5812 5849 5898 5850 5789 5753 5731 5772 5813 5915 6042 5978 5955 5984 6030 6090 6093 6115 6124 6227 6195 6192 6329 6455 6411 6448 6592 6646 6559 6503 6336 6355 6332 6267 6200 6140 6072 6108 6230 6208 6218 6290 6469 6578 6516 6558 6585 6690 6710 6706 6654 6620 6571 6433 6354 6312 6238 6167 6165 6250 6270 6296 6317 6261 6229 6172 6248 6293 6339 6391 6445 6492 6546 6615 6730 6788 6922 6854 6796 6750 6862 6915 6976 7047 7071 7055 6951 6975 6958 6923 6858 6834 6797 6712 6626 6588 6591 6476 6415 6366 6551 6610 6650 6746 6764 6842 6851 6789 6785 6768 6564 6477 6397 6343 6501 6524 6431 6368 6359 6280 6193 6186 6142 6073 6091 6117 6160 6210 6389 6484 6517 6575 6622 6660 6773 6847 6935 6898 6864 6899 6902 6888 6852 6804 6812 6786 6816 6909 6952 7017 6970 7011 7117 7137 7147 7174 7106 7087 7139 7208 7253 7295 7315 7270 7225 7344 7364 7391 7379 7356 7296 7286 7227 7171 7082 7023 7018 6965 6957 6885 6879 6825 6697 6634 6596 6566 6525 6435 6383 6328 6236 6262 6346 6426 6490 6576 6542 6652 6695 6670 6621 6745 6552 6504 6486 6422 6287 6225 6166 6341 6235 6163 6141 6116 6110 6049 6003 6029 6043 6056 6083 6059 6112 6121 6127 6148 6169 6109 6111 6151 6196 6281 6399 6438 6396 6327 6239 6204 6162 6129 6095 6048 6023 5995 5986 5988 6028 6053 6027 6017 5985 5916 5851 5852 5831 5773 5715 5716 5853 5917 5956 5982 5998 6019 5999 5957 5979 6094 6061 6052 6007 5980 5991 5969 5992 5981 6018 5958 5918 5856 5833 5791 5775 5855 5936 5900 5878 5854 5899 5832 5790 5754 5774 5755 5733 5567 5566 5616 5583 5519 5383 5367 5355 5393 5364 5291 5244 5225 5178 5219 5206 5154 5104 5112 5140 5277 5328 5192 5299 5351 5322 5376 5340 5278 5394 5370 5043 4796 4770 4810 4839 4745 4835 4924 5087 5180 5199 5222 5331 5456 5520 5543 5617 5584 5585 5544 5545 5694 5665 5666 5283 5250 5259 5118 5077 5044 4941 5114 5091 4972 4994 4925 4988 4929 4998 5028 5168 5341 5439 5305 5411 5481 5667 5650 5649 5604 5599 5586 5600 5640 5647 5618 5572 5487 5467 5239 5312 5424 5379 5441 5574 5573 5588 5577 5550 5526 5511 5501 5488 5478 5485 5508 5521 5547 5590 5623 5669 5651 5605 5796 5905 5906 5927 5925 5920 5865 5858 5804 5802 5794 5776 5798 5792 5879 5857 5886 5901 5937 5959 5989 5987 6025 6088 6123 6079 6045 6087 6158 6340 6461 6489 6561 6607 6627 6659 6715 6446 6375 6449 6590 6562 6416 6487 6234 6118 6044 6074 6057 6081 6075 6080 6076 6084 6119 6085 6055 6031 6005 6022 6024 6046 6054 6062 6114 6126 6128 6143 6184 6180 6279 6344 6376 6508 6604 6668 6759 6955 6873 6848 6740 6707 6677 6465 6456 6292 6226 6199 6113 6096 6149 6247 6299 6392 6384 6258 6276 6283 6826 6808 6886 6940 7109 7160 7276 7284 7330 7305 7358 7242 7213 7219 7162 7061 7112 7084 7172 7181 7175 7199 7231 7260 7272 7271 7311 7280 7350 7415 7409 7413 7435 7394 7340 7319 7301 7251 7211 7196 7178 7157 7099 7048 7065 6983 7007 7028 6980 6959 6810 6548 6394 6407 6526 6747 6758 6631 6694 6769 6867 6877 6972 7013 7081 7037 6960 6901 6775 6802 6792 6872 6936 7006 7032 7046 7069 7078 7133 7165 7203 7201 7289 7170 6844 6991 6906 6971 7051 7083 7210 7189 7248 7329 7420 7385 7307 7277 7173 7098 7233 7410 7393 7401 7416 7390 7388 7396 7392 7361 7355 7384 7405 7417 7403 7412 7400 7395 7376 7346 7331 7287 7235 7230 7146 7124 7097 7058 7003 7030 7049 7005 6979 6949 6995 7038 7076 7129 7194 7206 7121 7159 7039 7000 6948 6924 6846 6753 6696 6723 6676 6713 6795 6868 6870 6918 7025 7075 7190 7232 7252 7238 7186 7086 7134 7177 7214 7244 7285 7297 7312 7318 7341 7366 7373 7370 7351 7368 7348 7299 7255 7234 7278 7322 7304 7265 7256 7224 7262 7222 7283 7300 7323 7335 7293 7246 7254 7308 7290 7223 7247 7310 7264 7192 7197 7151 7164 7187 7149 7110 7068 7088 7072 7053 7015 6934 6946 6961 6815 6857 6881 6917 6856 6931 6837 6763 6719 6613 6530 6515 6428 6372 6358 6483 6583 6675 6638 6655 6682 6757 6760 6818 6778 6720 6639 6617 6600 6460 6294 6179 6255 6216 6311 6326 6413 6298 6233 6224 6288 6427 6511 6731 6827 6943 7044 7113 7094 7180 7200 7216 7282 7324 7317 7245 7120 7091 7031 7050 7021 6950 6733 6791 6876 6905 6866 6772 6799 6744 6708 6752 6843 6824 6927 6897 6992 7033 7141 7221 7145 7184 7243 7374 7381 7424 7418 7421 7434 7407 7360 7326 7380 7332 7325 7313 7229 7228 7176 7148 7066 7116 7101 7132 7100 7036 7043 6896 6839 6861 6822 6780 6831 6895 6933 6956 6982 6954 6977 7045 7070 7105 7107 7136 7161 7167 7185 7209 7298 7302 7362 7404 7441 7436 7433 7428 7419 7352 7309 7288 7266 7217 7207 7250 7343 7371 7387 7411 7443 7456 7450 7432 7430 7471 7475 7477 7490 7494 7501 7506 7511 7518 7515 7514 7507 7498 7491 7505 7512 7516 7508 7504 7500 7495 7487 7485 7482 7472 7451 7446 7439 7398 7259 7239 7279 7314 7333 7437 7460 7466 7473 7470 7464 7462 7452 7440 7408 7423 7448 7461 7469 7479 7488 7492 7499 7568 7578 7581 7589 7596 7586 7592 7611 7620 7625 7639 7650 7679 7672 7669 7671 7661 7635 7627 7634 7656 7666 7668 7675 7698 7694 7695 7687 7662 7677 7683 7665 7660 7622 7629 7613 7604 7599 7588 7574 7576 7582 7567 7557 7561 7563 7583 7598 7617 7631 7643 7645 7655 7681 7659 7641 7632 7609 7593 7597 7587 7577 7575 7585 7633 7654 7658 7649 7664 7693 7690 7689 7696 7700 7716 7708 7719 7715 7722 7706 7709 7728 7774 7798 7800 7759 7734 7745 7783 7796 7797 7772 7760 7737 7724 7710 7703 7697 7692 7686 7673 7636 7648 7640 7647 7670 7680 7674 7739 7765 7766 7775 7795 7776 7740 7730 7750 7735 7704 7727 7792 7789 7791 7788 7804 7817 7846 7886 7933 7938 7923 7872 7851 7831 7820 7823 7848 7881 7898 7892 7915 7924 7905 7939 7934 7867 7852 7896 7921 7926 7936 7972 7956 7961 7947 7964 7965 7980 7987 7982 7955 7890 7842 7828 7794 7810 7827 7844 7819 7833 7829 7807 7799 7785 7771 7779 7764 7757 7743 7685 7749 7769 7778 7809 7812 7824 7830 7825 7880 7868 7862 7869 7914 7919 7970 7983 8044 8056 8072 8103 8088 8084 8106 8096 8076 8058 8086 8066 8073 8067 8077 8051 8040 8029 8020 8018 8032 8035 8045 8048 8046 8053 8082 8074 8034 8026 8012 8000 8019 8047 8078 8201 8193 8146 8127 8140 8118 8112 8114 8138 8151 8164 8141 8131 8158 8172 8177 8178 8174 8163 8183 8196 8206 8208 8191 8161 8144 8129 8120 8128 8099 8065 8014 8013 8011 8028 8007 8002 7992 7999 8006 8009 8015 8024 8043 8079 8064 8052 8097 8100 8113 8133 8147 8143 8150 8156 8175 8190 8203 8215 8199 8211 8182 8200 8210 8218 8202 8195 8179 8165 8173 8181 8194 8220 8246 8245 8242 8243 8244 8240 8241 8239 8237 8236 8229 8227 8223 8213 8209 8214 8222 8226 8230 8232 8231 8225 8212 8216 8221 8219 8235 8234 8238 8233 8228 8224 8217 8207 8197 8187 8171 8162 8170 8186 8189 8198 8205 8180 8169 8149 8185 8204 8192 8184 8168 8159 8142 8152 8122 8107 8089 8117 8108 8080 8061 8075 8062 8042 8038 8069 8092 8116 8135 8176 8188 8167 8160 8154 8148 8136 8155 8157 8166 8139 8110 8102 8090 8063 8041 8027 8003 8050 8049 8060 8083 8094 8101 8132 8119 8104 8087 8109 8085 8036 8025 8021 8005 8017 8022 8016 7991 8004 7997 7978 7988 8001 7986 7967 7959 7976 7993 7977 7975 7968 7963 7954 7946 7942 7927 7917 7909 7925 7911 7893 7870 7891 7906 7910 7941 7948 7944 7953 7940 7928 7931 7922 7912 7929 7907 7904 7885 7887 7876 7849 7858 7857 7878 7875 7843 7840 7835 7814 7826 7839 7865 7903 7902 7863 7853 7836 7837 7815 7787 7805 7802 7777 7770 7742 7733 7720 7725 7712 7711 7707 7699 7731 7758 7747 7729 7744 7752 7782 7801 7808 7832 7803 7813 7806 7790 7781 7773 7761 7751 7748 7736 7721 7717 7726 7753 7762 7784 7780 7811 7816 7834 7838 7845 7856 7854 7860 7883 7879 7889 7897 7899 7882 7874 7855 7864 7871 7888 7894 7913 7918 7937 7958 7962 7973 7990 7971 7998 7994 7981 7984 8010 8008 8023 8033 8037 8081 8068 8057 8091 8124 8121 8123 8145 8137 8130 8134 8125 8111 8095 8105 8126 8153 8115 8098 8093 8070 8059 8071 8055 8030 8054 8039 8031 7985 7957 7969 7945 7952 7974 7979 7989 7996 7995 7966 7960 7935 7916 7901 7895 7884 7920 7949 7943 7951 7950 7932 7930 7908 7900 7877 7873 7866 7847 7859 7850 7861 7841 7822 7818 7821 7793 7763 7741 7732 7713 7701 7691 7688 7705 7718 7746 7754 7767 7786 7755 7738 7756 7768 7723 7702 7714 7684 7579 7554 7555 7539 7544 7550 7546 7543 7537 7536 7552 7541 7526 7522 7523 7533 7532 7535 7542 7549 7547 7558 7556 7551 7553 7548 7559 7573 7590 7595 7602 7621 7630 7605 7618 7607 7653 7652 7667 7678 7682 7644 7637 7676 7663 7638 7601 7584 7569 7572 7566 7560 7562 7564 7570 7580 7610 7600 7615 7624 7628 7657 7651 7642 7616 7606 7646 7626 7623 7614 7603 7612 7619 7608 7594 7591 7571 7565 7529 7530 7527 7538 7545 7540 7534 7531 7528 7525 7524 7519 7521 7517 7513 7509 7502 7520 7510 7503 7497 7496 7484 7474 7468 7481 7476 7449 7422 7372 7354 7367 7226 7156 7128 7042 7054 7093 7140 7198 7169 7144 7114 7056 7024 7014 6999 6974 6990 6928 6853 6714 6727 6689 6666 6625 6573 6651 6680 6743 6644 6533 6442 6371 6338 6370 6425 6480 6569 6641 6560 6528 6521 6510 6496 6582 6633 6643 6691 6755 6762 6782 6779 6811 6688 6739 6793 6829 6884 6945 6865 6875 6893 6860 6871 6833 6821 6805 6751 6863 6850 6887 6894 6998 7126 7153 7108 7193 7212 7218 7257 7338 7365 7334 7347 7383 7457 7442 7357 7389 7378 7337 7294 7263 7274 7183 7155 7131 7060 7029 7080 7119 6969 7002 7035 7027 7059 7090 7154 7130 7125 7041 7026 7008 6932 6916 6900 6841 6801 6717 6572 6547 6518 6599 6649 6701 6736 6803 6784 6737 6687 6584 6522 6452 6479 6421 6500 6587 6642 6724 6624 6532 6453 6414 6363 6297 6345 6249 6191 6178 6243 6310 6364 6404 6331 6256 6176 6214 6240 6291 6272 6254 6334 6506 6459 6437 6378 6308 6251 6213 6138 6231 6164 6137 6066 6013 5953 5913 5892 5844 5827 5845 5807 5828 5785 5808 5875 5893 5933 6039 6175 6215 6209 6318 6429 6356 6266 6304 6405 6362 6444 6514 6574 6439 6478 6538 6602 6645 6661 6705 6728 6673 6619 6674 6726 6756 6823 6794 6686 6475 6417 6406 6468 6523 6577 6711 6663 6540 6462 6529 6352 6245 6269 6177 6106 6069 6014 5954 6068 6105 6181 6259 6228 6139 6067 5975 5974 5894 5829 5786 5766 5708 5611 5559 5471 5470 5389 5408 5409 5365 5287 5236 5184 5274 5304 5289 5329 5378 5429 5428 5415 5579 5610 5658 5580 5684 5749 5748 5765 5707 5683 5657 5656 5682 5681 5632 5609 5655 5747 5826 5874 5891 5912 5952 6012 6104 6103 6065 6038 6037 6011 5951 5932 5890 5931 5873 5911 5930 6010 5950 5872 5825 5824 5871 5889 5870 5910 5948 5949 5973 6174 6325 6173 6241 6207 6134 6133 6036 6100 6201 6242 6285 6387 6349 6252 6168 6099 6035 6009 5947 5843 5823 5806 5783 5743 5742 5704 5677 5653 5678 5744 5724 5629 5630 5537 5491 5490 5404 5449 5468 5536 5489 5257 5371 5253 5407 5436 5442 5522 5556 5652 5587 5570 5529 5524 5486 5352 5262 5149 5069 4990 4906 4870 4812 4746 4682 4686 4912 4983 5022 5048 5029 5122 5059 4992 5243 5309 5223 5357 5399 5377 5326 5220 5189 5172 5132 5010 4980 4756 4709 4661 4828 4956 5000 5080 5049 5094 5134 5063 4927 4899 4845 4970 4881 4854 4636 4550 4585 4628 4714 4751 4729 4764 4741 4688 4629 4598 4508 4434 4435 4455 4366 4412 4430 4404 4527 4577 4669 4716 4708 4767 4847 4691 4541 4492 4490 4439 4336 4280 4269 4310 4335 4386 4342 4324 4326 4470 4323 4168 4163 3976 3968 3857 3917 3887 3930 3972 4064 4039 4090 4127 4245 4215 4162 4124 4140 4209 4195 4222 4322 4379 4394 4287 4179 4156 4204 4201 4138 4070 4016 4042 3859 3792 3757 3675 3631 3577 3529 3559 3641 3690 3726 3761 3804 3766 3734 3707 3668 3635 3568 3556 3597 3634 3670 3486 3445 3531 3581 3613 3680 3741 3759 3833 3839 3891 3948 3918 3893 3837 3899 3923 3955 4004 4041 4055 4003 3929 3861 3783 3816 3835 3902 4123 4174 4181 4223 4267 4292 4356 4388 4346 4217 4137 4062 4020 4009 3993 4060 4192 4260 4358 4380 4443 4482 4503 4578 4601 4539 4465 4507 4312 4268 4240 4134 3951 3894 3805 3776 3745 3728 3692 3691 3595 3518 3477 3490 3479 3428 3400 3351 3507 3514 3405 3433 3419 3382 3247 3228 3283 3265 3269 3295 3306 3329 3422 3440 3496 3478 3588 3769 3824 3870 3910 3829 3834 3781 3737 3803 3890 3931 3965 4040 4115 4178 4258 4250 4220 4183 4095 4075 4022 4048 3991 3964 4013 3908 3873 3802 3719 3685 3677 3733 3697 3614 3645 3617 3687 3722 3778 3825 3811 3853 3871 3849 3738 3605 3652 3660 3669 3640 3619 3569 3413 3376 3337 3336 3248 3230 3137 3193 3217 3225 3249 3330 3397 3425 3460 3523 3570 3551 3464 3438 3436 3390 3378 3356 3333 3236 3053 3026 2979 3011 3019 3048 3025 2973 2949 2960 3007 3023 2992 2951 2934 2827 2776 2846 2912 2898 2967 3024 3102 3093 3128 3175 3227 3380 3417 3300 3301 3255 3203 3112 3107 3083 3047 3008 2950 2828 2794 2736 2763 2719 2658 2667 2637 2604 2529 2505 2511 2506 2627 2598 2570 2557 2533 2500 2451 2479 2478 2528 2556 2595 2605 2549 2522 2474 2436 2395 2370 2348 2532 2594 2702 2765 2698 2696 2657 2623 2706 2744 2752 2818 2823 2815 2796 2804 2839 2862 2937 2956 3029 3042 3075 3103 3076 3157 3066 3104 3057 3005 3003 3018 3035 3068 3124 3100 3144 3253 3275 3358 3411 3443 3540 3591 3651 3643 3666 3554 3510 3525 3508 3489 3437 3429 3375 3362 3318 3272 3219 3198 3284 3250 3220 3274 3320 3349 3463 3370 3354 3357 3286 3231 3178 3160 3132 2954 2926 2867 2918 2940 3013 3034 3033 3017 3098 3082 3049 3058 3052 3115 3136 3174 3270 3321 3398 3449 3384 3441 3467 3541 3505 3524 3492 3596 3662 3630 3700 3752 3767 3798 3897 4034 4067 4117 4149 4193 4211 4253 4232 4254 4173 4290 4362 4381 4459 4502 4509 4564 4613 4523 4525 4393 4296 4314 4212 4155 4202 4111 4126 4030 4032 3962 3934 4015 3977 3943 3916 3945 3856 3836 3883 3855 3828 3758 3674 3705 3735 3740 3701 3676 3653 3650 3594 3513 3462 3446 3341 3399 3426 3469 3403 3434 3482 3519 3546 3573 3509 3555 3585 3599 3667 3718 3749 3684 3695 3713 3655 3637 3610 3593 3649 3656 3564 3612 3621 3671 3756 3796 3787 3817 3879 4014 3979 4037 3999 3952 3905 3898 3841 3820 3771 3720 3694 3644 3600 3566 3536 3512 3401 3412 3340 3313 3259 3204 3202 3245 3214 3209 3153 3092 3032 3045 3146 3060 3180 3191 3244 3278 3302 3242 3232 3233 3271 3303 3315 3319 3342 3391 3442 3432 3579 3538 3574 3625 3702 3739 3785 3797 3852 3987 3982 4068 4100 4120 4175 4130 4233 4303 4382 4385 4377 4438 4511 4498 4698 4676 4584 4615 4554 4472 4468 4387 4311 4298 4259 4197 4114 4074 4038 3970 3941 3971 4021 4035 4078 4119 4112 3956 3940 3881 3845 3922 3876 3821 3815 3808 3712 3736 3714 3657 3646 3711 3755 3788 3780 3800 3842 3880 3938 3928 3912 3958 3988 4011 4077 4104 4189 4265 4291 4392 4304 4354 4370 4476 4575 4648 4689 4724 4754 4755 4811 4837 4864 4832 4706 4782 4840 4820 4730 4705 4650 4609 4593 4533 4603 4538 4489 4510 4384 4408 4411 4339 4344 4313 4373 4454 4467 4514 4583 4733 4798 4878 4932 4939 4946 5078 5108 5174 5141 5176 5197 5296 5318 5216 5266 5307 5463 5509 5603 5672 5740 5721 5719 5720 5734 5761 5763 5777 5781 5799 5803 5817 5836 5839 5866 5859 5840 5822 5816 5820 5881 5861 5884 5835 5780 5757 5736 5756 5737 5699 5646 5569 5534 5528 5525 5531 5477 5484 5458 5358 5333 5302 5319 5270 5138 5155 5085 5052 5015 5021 5101 4964 4916 4858 4800 4799 4773 4664 4635 4566 4666 4721 4869 4926 5098 5074 5062 5012 4965 4918 4913 4950 4991 5079 4953 5009 5016 4940 4868 4827 4814 4816 4757 4662 4618 4547 4493 4600 4668 4739 4763 4718 4806 4779 4817 4875 4715 4652 4624 4597 4573 4499 4448 4399 4451 4480 4515 4526 4571 4582 4594 4576 4590 4654 4685 4707 4740 4725 4774 4857 4900 4999 5014 5040 5086 5109 5157 5242 5325 5412 5405 5306 5231 5241 5203 5071 5013 4943 5032 5045 5038 4951 4930 4863 4836 4901 4883 4954 5056 5097 5117 5084 5294 5343 5356 5460 5535 5546 5575 5628 5555 5523 5445 5435 5346 5310 5252 5159 5067 5106 5034 5020 4911 4894 4833 4790 4692 4785 4861 4935 5011 5036 5160 5248 5315 5419 5461 5420 5400 5339 5227 5286 5320 5448 5438 5395 5387 5398 5334 5256 5213 5161 5194 5246 5191 5139 5092 5076 5182 5175 5282 5403 5447 5362 5338 5314 5290 5209 5201 5208 5150 5083 5226 5281 5260 5410 5417 5464 5502 5530 5607 5606 5676 5702 5722 5723 5735 5797 5759 5758 5800 5814 5862 5867 5869 5888 5945 5967 6002 6008 5961 5997 6051 6078 6125 6274 6330 6400 6498 6535 6594 6509 6420 6545 6683 6671 6611 6550 6463 6549 6628 6555 6565 6457 6401 6436 6360 6282 6220 6188 6150 6222 6159 6284 6402 6512 6539 6612 6440 6369 6390 6451 6505 6519 6541 6636 6702 6672 6725 6776 6882 6907 6947 6989 6967 6889 6849 6662 6783 6942 6838 6809 6754 6647 6678 6734 6629 6589 6470 6418 6403 6485 6493 6556 6774 6738 6700 6648 6605 6543 6495 6342 6323 6382 6408 6286 6289 6316 6253 6183 6147 6185 6246 6302 6386 6381 6467 6447 6410 6497 6606 6520 6471 6430 6322 6314 6198 6050 6058 6077 6092 6197 6206 6263 6275 6182 6120 6145 6205 6295 6377 6321 6271 6170 6153 6144 6086 5996 5943 5962 6032 5983 5923 5902 5841 5838 5863 5834 5908 5921 5941 5971 6033 6089 6146 6212 6131 5994 5944 5904 5864 5818 5739 5671 5645 5624 5596 5554 5507 5482 5506 5549 5594 5592 5641 5620 5696 5764 5819 5795 5860 5926 5946 6026 6020 5909 5903 5805 5782 5801 5779 5738 5674 5703 5718 5760 5815 5842 5880 5885 5929 5963 6004 6082 5938 5960 5972 6060 6034 6098 6097 6155 6152 6221 6156 6132 6154 6189 6307 6481 6365 6347 6305 6373 6423 6499 6567 6632 6709 6741 6836 6891 6929 6941 6911 6883 6828 6703 6664 6616 6640 6601 6553 6464 6434 6337 6309 6306 6223 6171 6237 6273 6324 6374 6432 6488 6563 6557 6443 6544 6684 6770 6704 6630 6595 6507 6531 6570 6623 6665 6729 6819 6880 6814 6765 6732 6813 6878 6921 6912 6874 6807 6845 6919 6964 6978 6981 7004 7103 7062 7096 7123 7188 7143 7115 7092 6987 6973 6817 6742 6653 6598 6568 6536 6361 6351 6257 6161 6265 6357 6315 6350 6388 6412 6614 6618 6657 6749 6787 6790 6698 6830 6920 6832 6820 6669 6637 6597 6537 6472 6502 6473 6367 6264 6219 6101 6063 6064 6102 6300 6268 6203 6135 6202 6211 6232 6136 6190 6278 6313 6458 6474 6527 6603 6699 6781 6855 6903 6944 7074 6892 6771 6735 6693 6658 6721 6798 6766 6777 6869 6925 6913 7001 7009 7179 7359 7406 7402 7429 7438 7454 7483 7493 7486 7478 7467 7455 7453 7445 7427 7399 7386 7349 7292 7320 7336 7321 7345 7377 7375 7339 7303 7281 7237 7191 7205 7168 7135 7150 7142 7077 7010 6986 6997 6953 6910 6926 6890 6930 6968 7020 6988 6984 6914 6800 6748 6692 6679 6581 6656 6716 6806 6835 6937 6963 6908 6939 6994 7063 7102 7034 6962 6904 6993 6966 6938 6985 7022 7158 7104 7073 7138 7182 7202 7241 7267 7261 7220 7163 7095 7085 7012 7016 7067 7111 7079 7127 7064 7057 7122 7166 7204 7240 7236 7249 7269 7268 7316 7342 7353 7382 7369 7363 7426 7447 7458 7463 7480 7489 7459 7465 7431 7414 7425 7444 7397 7327 7328 7291 7306 7273 7275 7258 7195 7215 7152 7118 7052 6996 7040 7089 7019 6859 6840 6761 6718 6767 6722 6685 6667 6586 6554 6424 6393 6454 6491 6380 6419 6441 6466 6395 6319 6333 6320 6379 6482 6580 6608 6579 6398 6494 6593 6635 6681 6609 6534 6385 6277 6187 6157 6130 6122 6047 6006 6016 6001 6021 6000 5990 5993 5966 5968 5964 5940 5942 5970 5965 5939 5883 5924 5928 5922 5919 5907 5882 5887 5868 5837 5821 5793 5778 5762 5741 5717 5675 5625 5648 5643 5668 5670 5698 5695 5700 5701 5697 5673 5642 5644 5602 5597 5593 5639 5622 5598 5619 5626 5621 5591 5589 5568 5553 5571 5595 5601 5627 5576 5548 5510 5512 5483 5505 5503 5480 5350 5349 5384 5342 5418 5437 5457 5444 5421 5416 5300 5251 5235 5131 5254 5135 5211 5240 5212 5107 5019 5008 4947 4909 4819 4738 4732 4761 4887 4792 4722 4667 4568 4679 4696 4753 4784 4826 4842 4778 4672 4630 4546 4466 4477 4485 4431 4407 4343 4274 4236 4166 4125 4080 4194 4329 4355 4433 4445 4565 4673 4610 4529 4471 4410 4300 4171 4332 4401 4424 4391 4453 4425 4440 4559 4574 4697 4743 4762 4793 4822 4961 5005 5065 5004 4973 4905 4874 4849 4844 4789 4720 4702 4748 4797 4841 4848 4910 4895 4914 4942 5073 5003 4974 4985 5037 5143 5164 5202 5133 5147 5245 5285 5462 5443 5414 5374 5295 5255 5284 5386 5434 5466 5513 5533 5532 5551 5552 5527 5500 5504 5479 5465 5459 5446 5440 5422 5363 5308 5215 5181 5265 5423 5345 5238 5126 5055 5068 5018 4958 4949 4917 4963 4888 4882 4788 4723 4596 4491 4474 4363 4289 4327 4351 4369 4420 4458 4464 4277 4244 4255 4285 4348 4228 4102 4084 4049 4002 3980 3985 3984 4029 4026 3966 4092 4113 4148 4006 3957 3710 3664 3858 3823 3775 3746 3661 3663 3607 3576 3547 3485 3471 3459 3408 3511 3592 3578 3608 3659 3682 3753 3774 3810 3854 3848 3884 3913 3921 3889 3961 4132 4059 3998 3954 4008 3953 3878 3875 3903 4007 3997 4010 4054 4122 4206 4199 4288 4246 4165 4147 4096 4023 3989 3937 3942 3907 3874 3765 3732 3770 3784 3795 3782 3748 3639 3689 3681 3627 3654 3672 3618 3550 3624 3563 3534 3494 3447 3497 3481 3410 3345 3311 3234 3125 3064 3039 2962 2959 2875 2843 2863 2946 2977 2830 2751 2783 2771 2749 2678 2563 2539 2580 2613 2618 2572 2633 2677 2591 2514 2457 2513 2453 2419 2394 2290 2239 2224 2215 2291 2332 2359 2347 2372 2360 2309 2275 2263 2194 2176 2227 2218 2189 2228 2206 2159 2135 2165 2083 2026 2098 2079 2075 2070 2017 1987 1751 1757 1763 1782 1838 1867 1904 1926 1813 1646 1632 1637 1741 1791 1729 1703 1600 1624 1551 1553 1524 1413 1387 1426 1440 1567 1611 1548 1568 1526 1432 1546 1563 1647 1664 1667 1655 1606 1527 1481 1506 1467 1408 1360 1427 1492 1549 1656 1628 1636 1556 1570 1555 1604 1676 1752 1743 1720 1852 1879 1875 1913 1954 1959 1934 1936 1998 2033 2060 2076 2061 2112 2213 2292 2390 2384 2358 2406 2433 2378 2310 2295 2325 2350 2349 2421 2465 2608 2753 2811 2854 2876 2873 2793 2780 2733 2559 2536 2492 2512 2551 2587 2562 2515 2444 2375 2231 2323 2388 2426 2464 2555 2650 2682 2718 2792 2842 2838 2814 2797 2859 2890 2924 2913 2927 2930 2887 2885 2902 2955 3015 3037 3041 2998 2968 2899 2889 2920 2900 2922 2966 2997 3074 3099 3184 3281 3298 3276 3268 3261 3256 3316 3346 3373 3392 3427 3454 3415 3389 3421 3506 3580 3453 3365 3368 3452 3498 3493 3528 3586 3623 3501 3444 3406 3374 3310 3339 3327 3317 3291 3293 3241 3229 3187 3161 3158 3171 3177 3151 3108 3043 3016 3010 2972 2931 2879 2852 2777 2683 2731 2758 2816 2844 2766 2693 2672 2652 2621 2599 2615 2643 2735 2732 2881 2850 2782 2800 2730 2662 2651 2602 2561 2524 2485 2483 2523 2516 2560 2612 2630 2600 2584 2493 2466 2467 2402 2391 2363 2300 2314 2260 2178 2095 2104 2067 2038 1944 1877 1820 1799 1845 1861 1899 2019 1928 1880 1901 1828 1735 1723 1688 1727 1769 1768 1805 1847 1855 1825 1850 1849 1841 1890 1941 1978 2004 2090 2101 2118 2190 2214 2245 2278 2311 2341 2386 2377 2335 2271 2234 2217 2145 2085 2054 2001 1985 1979 1939 1905 1895 1927 1839 1744 1700 1658 1710 1725 1659 1582 1512 1707 1682 1679 1623 1539 1523 1476 1454 1420 1353 1409 1429 1450 1490 1626 1620 1652 1587 1648 1701 1762 1683 1594 1534 1515 1487 1365 1316 1180 1176 1268 1200 1226 1245 1295 1352 1361 1322 1372 1442 1455 1511 1558 1516 1482 1753 1747 1711 1595 1583 1598 1622 1698 1786 1909 2111 2117 2187 2191 2250 2264 2254 2193 2173 2140 2072 1955 1948 1878 1842 1827 1834 1881 1896 1977 1995 2020 2048 2042 1754 1680 1663 1784 1835 1843 1906 1942 1917 1864 1882 1960 1980 2108 2130 2163 2207 2225 2255 2313 2331 2422 2480 2373 2352 2403 2387 2455 2495 2477 2438 2408 2202 2181 2096 2031 2025 2071 2115 2119 2120 2087 2078 2009 1956 2073 2126 2102 2141 2166 2232 2269 2301 2343 2258 2219 2186 2192 2208 2236 2209 2182 2154 2114 2116 2164 2093 2155 2259 2324 2285 2256 2240 2265 2211 2143 2100 2021 2041 2045 1812 1738 1787 1807 1777 1840 1793 1759 1448 1439 1421 1355 1444 1480 1479 1483 1423 1395 1541 1498 1499 1538 1615 1631 1704 1750 1773 1897 1949 1964 2034 2035 2040 1982 1993 2049 2081 2036 2016 1984 1916 1886 1903 1911 1932 1898 1795 1776 1780 1651 1621 1552 1449 1465 1349 1377 1422 1489 1517 1537 1557 1586 1618 1561 1749 1789 1810 1851 1857 1814 1686 1635 1705 1742 1610 1544 1493 1441 1443 1410 1303 1211 1219 1281 1296 1292 1220 1206 1324 1392 1380 1373 1354 1320 1278 1242 1221 1215 1367 1370 1327 1284 1271 1291 1307 1230 1173 1164 1124 1143 1231 1285 1343 1286 1315 1163 1101 1052 958 951 910 889 893 876 849 848 880 939 938 969 970 1122 1075 1060 1011 996 1020 1043 997 953 978 919 883 805 771 744 755 784 770 746 575 540 428 445 435 403 417 384 395 421 386 364 367 375 402 422 441 451 458 512 561 503 470 447 471 499 542 566 475 532 607 653 704 739 738 609 574 550 572 608 596 650 682 697 730 764 772 814 820 837 856 845 855 836 777 816 812 801 860 857 903 986 949 1066 1127 1154 1212 1072 1196 1241 1254 1386 1485 1472 1494 1486 1706 1836 1892 1829 1803 1804 1821 1778 1770 1670 1653 1513 1470 1170 1152 1078 1044 1070 1086 1014 998 1076 1105 1228 1213 1306 1346 1332 1269 1376 1378 1406 1344 1297 1198 1255 1310 1412 1496 1532 1510 1590 1687 1774 1684 1616 1578 1507 1415 1359 1374 1302 1249 1209 1159 1149 1080 1171 1214 1287 1362 1437 1452 1504 1540 1533 1649 1677 1739 1806 1822 1702 1633 1666 1625 1599 1717 1785 1654 1671 1699 1535 1433 1319 1288 1275 1235 1256 1185 1073 1037 942 960 1082 1097 1186 1333 1390 1491 1589 1644 1689 1797 1976 1938 1947 1869 1862 1848 2069 2109 2198 2088 2074 1962 1991 2003 2099 2248 2174 2131 2052 2056 2029 2077 2082 2122 2138 2161 2221 2230 2233 2267 2184 1965 1945 1957 1925 1889 1823 1844 1728 1643 1571 1585 1650 1579 1543 1518 1503 1466 1398 1298 1195 1187 1177 1166 1040 1046 1079 1103 1239 1188 1110 1088 1038 987 961 929 911 867 786 793 829 826 817 864 904 914 923 1018 1045 1036 999 968 896 897 862 827 785 822 852 885 905 843 865 808 783 767 794 775 756 663 594 611 638 602 544 511 495 548 531 507 558 543 551 601 618 632 606 657 662 642 664 692 723 720 751 776 818 839 851 821 778 758 741 768 813 842 869 884 854 875 944 980 948 1028 1030 1199 1144 1085 1057 1027 972 952 947 922 928 932 898 863 800 838 803 881 921 941 992 950 937 874 828 735 779 807 872 895 891 853 792 740 719 684 641 630 660 643 610 651 685 700 597 533 504 497 535 645 680 629 577 536 500 483 368 353 336 308 285 264 274 253 215 249 281 269 255 250 230 218 234 238 192 205 186 182 132 143 147 179 166 161 127 84 68 66 83 102 129 134 144 177 176 217 183 189 235 223 198 214 243 260 280 265 320 327 332 372 399 436 416 407 385 312 291 303 309 413 433 460 501 513 465 424 387 405 429 523 554 578 654 668 678 703 698 729 718 689 765 790 823 846 804 743 709 694 687 647 648 669 688 710 750 721 690 711 753 747 766 728 681 636 670 634 592 619 631 595 559 506 508 468 404 398 411 380 412 434 452 492 524 455 509 564 620 707 686 443 469 450 510 560 573 530 528 489 382 361 259 242 228 178 155 124 119 112 104 91 88 79 115 163 153 157 173 196 210 211 188 170 156 184 206 220 276 275 262 268 294 318 324 363 345 333 330 315 340 344 356 369 358 359 349 310 292 335 352 376 388 448 462 437 446 484 545 539 587 583 552 516 515 505 496 459 410 377 379 527 581 598 580 579 640 633 616 556 590 555 491 514 502 461 389 423 401 346 306 323 351 357 326 339 321 297 298 284 248 258 266 300 316 270 254 237 219 209 174 164 121 138 150 135 90 98 107 111 64 81 54 47 40 48 77 71 55 63 72 56 32 31 29 23 17 22 24 42 49 21 15 13 9 10 6 3 1 35 43 34 27 33 20 16 25 18 14 12 4 8 7 11 5 2 45 51 58 227 244 202 216 222 229 200 213 241 246 273 287 299 304 289 325 366 314 277 296 279 236 201 187 194 151 105 114 108 165 154 94 123 126 118 110 74 65 36 37 28 44 80 70 73 57 67 61 99 69 52 50 53 26 19 30 39 60 76 96 122 168 181 204 233 224 169 263 278 313 329 343 383 392 365 391 348 286 305 331 337 355 360 302 245 226 193 172 162 160 137 131 128 149 197 231 199 185 167 158 142 139 125 106 95 109 93 78 38 75 87 82 59 41 46 62 92 101 116 113 89 120 133 146 175 225 232 240 261 293 301 322 362 397 396 409 431 453 488 415 381 430 457 517 562 534 546 529 623 563 482 481 518 493 419 463 487 442 477 490 541 570 656 538 576 557 586 603 613 625 658 599 652 626 584 525 474 480 425 406 338 342 400 418 547 591 582 478 494 565 571 519 537 520 674 605 464 439 414 390 328 307 290 288 257 208 180 140 148 159 145 141 152 195 190 207 203 212 221 239 247 256 267 271 251 252 272 283 311 282 295 319 354 438 472 521 585 479 553 420 432 440 378 374 373 191 171 136 130 117 85 100 103 86 97 341 371 394 449 485 526 427 454 569 600 615 617 722 702 695 637 568 476 522 604 589 549 646 667 757 780 763 742 760 847 1165 1179 1223 1172 1145 1114 1098 1175 1208 1252 1283 1294 1345 1379 1425 1436 1371 1329 1314 1424 1473 1536 1514 1531 1566 1569 1593 1580 1547 1508 1501 1464 1468 1407 1414 1435 1417 1351 1293 1232 1313 1384 1342 1279 1225 1216 1183 1162 1182 1178 1161 1264 1308 1592 1581 1559 1630 1674 1714 1734 1697 1669 1642 1545 1591 1627 1634 1662 1708 1831 1859 2146 2169 2124 2179 2105 2066 2007 1846 1779 1756 1755 1767 1588 1597 1565 1550 1522 1484 1393 1309 1270 1348 1218 1277 1227 1193 1153 1157 902 810 802 901 890 882 798 737 745 639 614 588 473 466 486 467 426 393 370 317 334 347 350 408 444 456 498 644 659 732 717 701 699 733 782 840 868 886 892 931 974 925 908 933 981 983 990 1041 1025 1015 1111 1129 1251 1290 1312 1347 1358 1321 1205 1121 1160 1263 1341 1237 1204 1155 1142 1089 1077 1050 1031 1008 995 1009 946 920 985 1024 1042 1055 1056 1126 1194 1151 1117 1094 1146 1128 1123 1017 954 917 899 809 841 825 811 789 796 727 628 593 676 731 774 736 749 752 716 627 649 673 993 989 1007 1023 1061 1093 1141 1229 1323 1244 1301 1500 1564 1605 1462 1576 1405 1614 1629 1640 1673 1695 1696 1736 1809 1731 1766 1794 1826 1884 1923 1974 2015 2032 2177 2210 2235 2223 2338 2253 2354 2400 2413 2447 2497 2574 2521 2369 2351 2353 2299 2307 2257 2280 2139 2144 2064 2024 1996 1933 1924 1971 2013 1912 1972 2018 2089 2153 2167 2197 2142 2158 2133 2065 2010 2027 1986 1973 1999 1907 1819 1758 1685 1675 1718 1790 1792 1748 1661 1613 1560 1639 1694 1665 1657 1608 1609 1475 1529 1575 1603 1713 1818 1746 1863 1915 1970 1894 1866 2030 2094 2172 2200 2152 2103 2113 2084 2039 1969 2058 2196 2243 2238 2199 2306 2327 2361 2450 2504 2542 2460 2397 2396 2336 2328 2276 2247 2205 2157 2123 2044 1952 1922 1832 1883 1887 1856 1837 1783 1693 1617 1477 1463 1474 1402 1338 1366 1260 1191 1137 1108 1063 1095 1049 1074 1053 1048 1033 1058 1068 1112 1083 1136 1156 1190 1282 1363 1267 1337 1446 1459 1453 1401 1451 1745 1724 1817 1989 2000 1968 1951 1830 1872 1900 1946 2012 2062 2129 2148 2262 2383 2482 2583 2684 2761 2742 2847 2824 2746 2714 2669 2655 2567 2565 2519 2588 2620 2614 2697 2724 2741 2715 2743 2781 2805 2840 2831 2813 2911 2944 2987 3004 2975 2986 3001 2996 2945 3014 2904 2812 2897 2858 2896 2817 2829 2788 2779 2725 2675 2717 2790 2785 2770 2799 2826 2686 2665 2550 2470 2530 2409 2407 2448 2510 2538 2487 2469 2449 2498 2520 2553 2418 2315 2428 2289 2266 2220 2162 2110 2091 2014 1967 2063 2011 2047 2022 2043 2068 2107 2028 2432 2430 2399 2367 2329 2294 2346 2268 2244 2204 2201 2180 2249 2288 2334 2357 2279 2282 2308 2366 2463 2494 2593 2581 2606 2645 2543 2499 2471 2527 2577 2476 2368 2284 2364 2298 2273 2171 2195 2059 2023 1997 1929 1935 1871 1853 1765 1764 1668 1641 1574 1577 1619 1798 1692 1645 1601 1573 1520 1528 1497 1430 1383 1458 1416 1385 1369 
