Best cost: 184345
Time: 2373.28
Route:
733 732 738 750 757 752 756 749 737 731 747 754 748 755 761 762 764 773 774 765 763 751 743 739 740 741 734 735 729 724 710 698 697 691 685 692 678 679 672 671 670 661 654 655 648 637 621 615 608 538 537 544 267 255 252 245 244 241 221 232 224 219 212 213 217 214 208 205 201 195 194 189 187 188 175 170 144 133 127 121 118 112 111 107 110 234 240 228 237 231 227 239 248 238 243 266 272 271 766 1053 1153 1154 1155 1162 1163 1148 1389 1999 2278 2310 2224 2327 2481 2524 2684 2946 2991 2998 3205 3373 3405 3164 3095 3133 3264 3303 3708 3751 3809 3566 3513 3500 3368 3324 3227 3173 3274 3342 3406 3369 3620 3374 3492 3580 3710 3636 3407 3464 3335 3109 3527 3748 3792 3889 3902 3848 3877 3884 3888 3953 4029 4101 4227 4233 4124 4163 4257 4439 4540 4488 4578 4504 4387 4373 4388 4462 4489 4471 4463 4389 4274 4099 4258 4254 4361 4482 4664 4731 4686 4712 4838 4785 4816 4739 4648 4687 4569 4616 4577 4509 4340 4474 4602 4650 4764 4989 5165 5233 5298 5284 5224 5170 5166 5075 5076 5249 5171 5172 5148 5184 5173 5031 4932 4909 4870 4853 4891 4843 4844 4943 4995 5024 5151 5119 5262 5209 5197 5223 5096 4973 4972 5049 5175 5142 5005 4971 5034 5078 5110 5130 5077 5174 5206 5258 5330 5315 5366 5491 5711 5544 5463 5367 5314 5259 5278 5260 5273 5261 5368 5464 5489 5545 5573 5575 5628 5737 5739 5798 5768 5970 5977 5928 5949 5998 5909 5820 5823 5754 5657 5627 5652 5612 5543 5497 5486 5462 5577 5542 5461 5435 5365 5364 5347 5413 5460 5459 5499 5458 5363 5728 5925 5933 5362 5216 5280 5237 5112 4948 4898 4835 4837 4769 4758 4830 4930 4962 4899 4797 4635 4639 4762 4804 4852 4922 4994 5108 5199 5048 4763 4778 4668 4576 4456 4386 4529 4631 4643 4507 4261 3959 4039 4119 4123 4042 3863 3805 3958 4150 4191 4143 4405 4276 4255 4321 4437 4423 4545 4628 4618 4596 4470 4264 4286 4250 4330 4298 4207 4297 4350 4383 4441 4369 4445 4384 4385 4528 4601 4716 4765 4784 4810 4893 4781 4709 4715 4634 4382 4169 4148 4003 3895 3855 3463 3716 4051 4052 4206 4260 4487 4564 4535 4575 4486 4574 4485 4573 4572 4484 4483 4296 3963 4050 3962 3778 1841 1489 1516 1529 1542 1528 1515 1541 1660 7075 7100 7076 7065 7066 7101 7146 7124 7125 7126 7045 7083 7102 7067 7084 7077 7068 7057 7029 7046 7047 6950 6951 7008 6952 7009 6953 6819 6878 6820 5840 5841 6225 5781 5875 6072 5394 5279 5360 5361 5256 5074 4782 4783 4204 3960 3961 4049 4126 4127 4128 4205 4295 4649 4713 4705 4714 4777 4970 5339 5257 5515 5507 5678 5640 5698 5762 5842 5833 5899 6060 5991 6002 6045 6039 6067 6118 6172 6226 6197 6079 6058 6227 6207 6213 6220 6286 6274 6361 6322 6415 6406 6416 6469 6509 6557 6504 6459 6448 6394 6338 6290 6208 6199 6144 6134 6082 6075 6046 6068 6034 5914 6032 6030 6016 6005 5960 5876 5807 5715 5716 5647 5625 5541 5568 5626 5667 5788 5843 5984 5924 5939 5948 5947 6024 6132 6137 6169 6145 6112 6099 5969 5975 6031 6128 6287 6296 6345 6378 6473 6600 6706 6411 6363 6281 6280 6228 6248 6211 6200 6250 6258 6321 6369 6379 6437 6426 6435 6417 6500 6541 6547 6636 6559 6543 6443 6305 6291 6223 6171 6139 6107 6043 6120 6201 6253 6266 6268 6353 6352 6384 6395 6412 6444 6418 6478 6546 6507 6498 6479 6488 6480 6539 6553 6575 6620 6658 6633 6696 6720 6693 6704 6719 6769 6767 6753 6703 6768 6780 6786 6791 6754 6695 6692 6666 6758 6730 6755 6792 6821 6841 6842 6834 6812 6853 6874 6894 6893 6921 6927 6896 6838 6832 6867 6934 6936 6948 6985 6987 6971 7001 7005 7006 7015 7018 7024 7085 7036 7025 7026 7037 7039 7035 7031 7020 7004 6978 6957 6962 6977 6960 6972 6961 6943 6931 6917 6930 6928 6916 6892 6897 6866 6850 6863 6813 6773 6674 6572 6580 6659 6689 6732 6781 6779 6725 6648 6629 6582 6564 6440 6374 6399 6317 6304 6261 6323 6354 6362 6377 6430 6474 6410 6431 6427 6503 6563 6673 6628 6596 6536 6461 6429 6368 6318 6288 6206 6141 6074 6097 6011 5976 6022 6029 6081 6160 6073 6041 5961 5972 5880 6035 5981 5881 5800 5740 5691 5629 5584 5511 5649 5733 5767 5572 5518 5480 5465 5369 5370 5299 5371 5433 5372 5160 5079 5248 5254 5231 5176 5137 5115 5122 5051 4967 4944 4812 4776 4860 4858 4864 4880 4963 4975 4902 4872 4871 4817 4800 4753 4718 4682 4640 4586 4560 4553 4544 4559 4542 4510 4532 4556 4579 4531 4644 4605 4592 4622 4678 4717 4794 4822 5015 4950 4974 4941 4786 4798 4688 4629 4566 4490 4351 4379 4293 4327 4267 4114 4066 4068 4160 4088 4006 4072 4034 3982 3934 3985 3741 3695 3699 3698 3731 3832 3856 3900 3955 4022 4032 4112 4111 4165 4208 4269 4268 4312 4311 4322 4281 4277 4432 4454 4359 4390 4380 4438 4478 4461 4424 4426 4442 4341 4197 4149 4089 4063 3980 3965 4009 4129 4170 4144 4152 4155 4198 4338 4352 4355 4402 4416 4412 4492 4491 4512 4365 4325 4313 4275 4228 4194 4200 4234 4309 4278 4299 4342 4364 4403 4446 4511 4481 4479 4457 4458 4433 4514 4521 4501 4526 4561 4595 4651 4691 4625 4623 4598 4663 4710 4707 4706 4749 4780 4808 4795 4851 4824 4793 4813 4890 4949 4959 4988 5027 5025 5217 5414 5439 5492 5565 5668 5759 5631 5578 5532 5487 5373 5466 5594 5630 5741 5804 5872 5943 5986 6191 6229 6221 6230 6186 6215 6177 6100 6115 6021 5971 5963 5915 5869 5929 5997 5978 5910 5837 5825 5834 5870 5913 5973 5982 6069 6103 6064 6006 5803 5755 5724 5704 5618 5595 5558 5476 5440 5340 5311 5300 5285 5274 5177 4999 5058 5104 5044 4997 4935 4918 4926 4924 4831 4768 4703 4669 4735 4727 4750 4814 4809 4839 4906 4907 4841 4826 4939 4947 5028 5111 5095 5146 5120 5143 5159 5114 5066 4964 4942 5007 4968 4919 4854 4779 4917 4965 5008 5041 5125 5039 5190 5169 5164 5301 5327 5253 5250 5238 5321 5214 5167 5152 5192 5226 5240 5263 5276 5351 5415 5423 5407 5402 5429 5481 5467 5441 5447 5512 5552 5530 5522 5509 5521 5579 5582 5517 5554 5495 5519 5446 5442 5488 5396 5391 5437 5412 5374 5357 5322 5264 5265 5416 5448 5563 5535 5616 5665 5663 5643 5607 5534 5536 5537 5576 5608 5650 5599 5597 5561 5524 5494 5456 5484 5430 5419 5352 5350 5434 5479 5482 5523 5605 5666 5671 5726 5761 5729 5771 5793 5794 5653 5611 5606 5427 5455 5500 5604 5693 5731 5683 5742 5859 5868 5690 5516 5508 5501 5436 5395 5338 5332 5281 5220 5255 5313 5333 5334 5404 5424 5422 5425 5477 5485 5496 5546 5585 5566 5583 5533 5525 5526 5600 5680 5719 5757 5765 5642 5766 5672 5644 5632 5694 5684 5712 5673 5685 5758 5744 5795 5846 5967 5983 6003 5923 5891 5922 5989 5873 5927 5921 5865 5845 5816 5764 5709 5743 5774 5772 5654 5648 5620 5609 5701 5692 5718 5770 5835 5814 5809 5844 5838 5885 5946 5903 5950 6033 6010 6025 6026 6101 6080 6061 6001 5930 5884 5938 5992 6049 6089 6114 6090 6149 6127 6091 6176 6218 6189 6198 6222 6270 6312 6325 6313 6279 6264 6254 6234 6326 6347 6387 6414 6407 6282 6233 6267 6251 6339 6386 6482 6467 6484 6398 6346 6389 6388 6360 6293 6088 6147 6133 6098 6048 5993 6138 6174 6148 6119 6084 6009 6013 5980 5940 5801 5857 5897 5863 5901 5916 6000 5904 5888 5783 5792 5878 6065 6131 6173 6249 6245 6292 6244 6307 6324 6335 6310 6232 6205 6178 6142 6188 6260 6308 6359 6405 6441 6460 6531 6591 6634 6734 6639 6663 6677 6661 6640 6555 6493 6486 6458 6494 6540 6619 6669 6708 6752 6795 6843 6851 6771 6751 6787 6831 6839 6818 6740 6641 6558 6489 6413 6449 6487 6549 6530 6451 6528 6453 6513 6391 6450 6548 6526 6527 6590 6554 6599 6647 6676 6691 6657 6711 6728 6750 6784 6785 6809 6830 6823 6849 6837 6801 6788 6774 6731 6705 6660 6594 6618 6637 6625 6595 6626 6672 6739 6790 6868 6954 6861 6860 6805 6741 6603 6565 6508 6481 6457 6436 6529 6664 6699 6727 6738 6776 6794 6817 6856 6903 6845 6822 6757 6716 6733 6770 6793 6743 6726 6675 6621 6583 6668 6667 6649 6627 6602 6573 6601 6452 6397 6355 6314 6192 5919 6038 6076 6124 6187 6316 6380 6462 6501 6511 6534 6483 6490 6512 6550 6538 6589 6566 6502 6456 6445 6390 6262 6231 6212 6246 6204 6265 6278 6299 6340 6341 6344 6358 6315 6269 6217 6175 6170 6135 6136 6116 6062 6109 6164 6161 6023 5995 5985 5979 5883 5871 5789 5836 5790 5886 5964 6040 6017 5877 5887 5974 6012 6083 6146 6110 6047 5965 5906 5966 5920 5907 5829 5791 5763 5669 5775 5828 5808 5813 5782 5730 5734 5735 5717 5700 5769 5806 5786 5708 5659 5555 5603 5591 5699 5727 5670 5614 5756 5725 5799 5812 5896 5926 5902 5811 5777 5776 5655 5660 5682 5707 5641 5662 5710 5824 5867 5900 5944 6059 6063 6216 6259 6275 6306 6319 6300 6396 6510 6598 6710 6724 6749 6901 6887 6918 7058 7056 7062 7064 7069 7073 7081 7088 7089 7091 7093 7094 7135 7137 7138 7127 7136 7133 7134 7131 7128 7121 7115 7118 7120 7113 7129 7119 7114 7112 7116 7122 7130 7132 7141 7143 7142 7144 7145 7140 7108 7111 7117 7106 7109 7107 7105 7103 7099 7097 7095 7139 7123 7110 7104 7098 7096 7087 7079 7082 7086 7090 7092 7063 7052 7050 7041 7027 7032 7003 6995 6998 7002 6994 7019 7043 7040 6992 6996 6958 6939 6885 6882 6895 6862 6833 6783 6759 6742 6690 6631 6604 6581 6404 6385 6454 6544 6537 6576 6605 6642 6715 6789 6854 6898 6890 6697 6597 6535 6475 6463 6419 6428 6381 6446 6464 6382 6327 6263 6235 6181 6117 6193 6162 6150 6087 6085 6042 5951 5988 6050 6044 6071 6077 6194 6182 6236 6255 6311 6364 6420 6465 6476 6514 6606 6592 6438 6356 6283 6297 6284 6237 6167 6121 6092 6051 6004 6036 6102 6108 6183 6163 6151 6165 6078 5952 5892 5893 5864 5847 5911 5861 5830 5760 5745 5674 5547 5539 5473 5426 5420 5378 5328 5379 5318 5202 5133 5156 5194 5193 5302 5309 5377 5472 5556 5587 5658 5695 5613 5634 5562 5633 5601 5510 5469 5470 5449 5471 5376 5291 5212 5207 5083 5084 5085 5063 4940 4914 4946 4850 4815 4803 4747 4720 4646 4759 4788 4885 4931 4979 5082 5215 5219 5290 5346 5398 5428 5468 5266 5242 5185 5131 5126 5107 5069 5099 5060 5109 5113 5187 5155 5200 5277 5392 5252 5232 5204 5189 5162 5121 5068 5038 5045 4911 4745 4685 4679 4613 4519 4473 4409 4459 4587 4585 4672 4661 4567 4620 4614 4787 4829 4766 4842 4908 4923 4956 5032 4954 4920 4905 4887 4990 5043 5067 5124 5080 5010 4951 4938 4882 4873 4874 4807 4730 4619 4443 4316 4263 4300 4392 4415 4425 4477 4533 4417 4306 4202 4151 4110 4053 4054 3994 3933 3826 3908 3940 3914 3919 3853 3758 3775 3763 3755 3704 3680 3576 3565 3483 3379 3358 3339 3285 3299 3446 3512 3536 3529 3598 3634 3658 3637 3753 3769 3927 3949 3993 4001 3920 3829 3846 3779 3752 3820 3798 3839 3864 3929 3992 4038 4023 4012 3954 3945 3890 3841 3734 3723 3686 3575 3452 3629 3688 3706 3604 3502 3687 3691 3619 3535 3424 3367 3360 3375 3353 3340 3381 3338 3281 3228 3197 3149 3085 3034 3014 2981 3150 3270 3344 3494 3534 3579 3627 3674 3801 3774 3735 3749 3804 3811 3824 3913 3946 3966 4046 4117 4087 4017 4000 3952 3896 3793 3701 3654 3677 3697 3690 3621 3669 3670 3668 3685 3730 3767 3746 3857 3932 4075 4095 4093 4121 4139 4210 4239 4262 4318 4378 4399 4452 4450 4391 4367 4371 4334 4323 4282 4232 4237 4230 4224 4176 4242 4246 4141 4157 4279 4259 4310 4324 4332 4404 4413 4476 4430 4448 4410 4455 4333 4346 4374 4377 4331 4287 4244 4236 4153 4158 4085 4096 4105 4138 4107 4118 4164 4245 4467 4419 4294 4247 4240 4319 4339 4449 4469 4719 4696 4734 4879 4884 4927 4958 4936 5023 5042 5052 5117 5097 5072 5138 5213 5312 5359 5418 5417 5375 5286 5225 5178 5236 5241 5161 5014 5116 5186 5218 5308 5289 5335 5349 5444 5397 5288 5211 5154 5098 5059 5101 5061 5009 4977 4976 4869 4903 4978 4937 4857 4828 4802 4752 4744 4609 4591 4551 4570 4584 4548 4590 4689 4692 4695 4733 4740 4755 4729 4728 4666 4621 4633 4708 4801 4832 4771 4805 4897 4955 4886 4987 4881 4859 4866 4928 4996 5026 5100 5145 5201 5287 5297 5227 5210 5203 5144 5123 5094 5050 5029 4945 4861 4823 4811 4773 4770 4754 4694 4681 4660 4597 4612 4554 4503 4523 4527 4600 4611 4593 4641 4652 4674 4699 4693 4732 4680 4659 4608 4603 4502 4500 4555 4599 4557 4515 4480 4429 4408 4370 4251 4209 4174 4102 4026 4010 4030 4079 4076 4081 4018 3926 3931 3948 3860 3845 3828 3806 3825 3842 3810 3850 3883 3928 3935 3944 4014 3964 3923 3827 3773 3732 3700 3667 3599 3574 3561 3531 3420 3410 3380 3209 3214 3184 3128 3036 3151 3152 3089 3029 2976 2873 2823 2862 2970 3039 3137 3276 3220 3343 3362 3348 3372 3501 3711 3612 3547 3569 3448 3432 3490 3511 3538 3505 3450 3398 3383 3460 3427 3493 3567 3570 3613 3678 3614 3581 3532 3439 3418 3356 3267 3269 3284 3277 3216 3122 3075 3030 2979 2926 2806 2919 2855 2715 2743 2854 2872 2812 2721 2741 2827 2921 2939 3023 3087 3142 3101 3131 3200 3198 3272 3384 3322 3294 3252 3248 3202 3194 3156 3154 3136 3110 3143 3134 3135 3083 3048 2986 2982 2997 2947 2967 3042 3024 3049 3018 2962 2960 2924 2883 2830 2772 2829 2923 2935 2925 2920 2916 2824 2828 2737 2710 2576 2529 2530 2632 2645 2678 2633 2669 2677 2719 2775 2728 2616 2614 2626 2577 2578 2531 2447 2414 2413 2342 2341 2313 2283 2254 2282 2253 2281 2340 2370 2411 2412 2446 2483 2528 2649 2647 2525 2526 2527 2482 2445 2410 2369 2339 2311 2312 2280 2251 2279 2250 2225 2252 2226 2227 2228 2202 2184 2165 2166 2120 2106 2090 2088 2065 2061 2054 2064 2066 2084 2085 2091 2111 2118 2131 2138 2159 2167 2192 2205 2204 2203 2229 2244 2275 2284 2277 2301 2291 2265 2239 2214 2198 2191 2179 2174 2171 2175 2160 2149 2152 2148 2126 2129 2140 2141 2121 2142 2154 2176 2178 2180 2195 2206 2200 2215 2234 2236 2217 2260 2272 2264 2242 2238 2216 2222 2230 2241 2237 2240 2248 2267 2269 2270 2273 2292 2302 2358 2344 2357 2367 2387 2461 2436 2407 2393 2401 2429 2455 2505 2472 2443 2435 2406 2415 2438 2459 2474 2518 2560 2521 2466 2441 2424 2392 2396 2366 2386 2361 2334 2323 2294 2315 2304 2314 2322 2337 2326 2320 2336 2343 2371 2372 2398 2442 2471 2509 2532 2613 2689 2729 2722 2670 2688 2779 2874 2977 3027 3096 3212 3169 3171 3196 3207 3257 3331 3332 3278 3234 3283 3376 3453 3465 3548 3596 3573 3639 3679 3727 3514 3638 3635 3717 3726 3745 3901 3967 3891 3815 3780 3776 3781 3816 3909 3986 4002 4113 4145 4211 4056 4055 4069 4171 4192 4265 4348 4464 4675 4662 4711 4775 4827 4846 4913 4952 5073 4957 5081 5040 4912 4888 4894 4856 4825 4796 4736 4645 4562 4571 4475 4418 4362 4193 4122 4130 4082 3939 3937 3865 3818 3782 3725 3640 3659 3625 3724 3641 3660 3642 3609 3633 3743 3905 3910 3843 3770 3728 3713 3764 3831 3916 3915 3866 3942 3998 4027 4057 4020 4104 4116 4115 4181 4212 4272 4283 4314 4256 4213 4190 4154 4120 4077 4086 4140 4146 4214 4225 4229 4301 4326 4393 4436 4451 4525 4589 4610 4700 4721 4818 4875 5006 5021 5047 5086 5234 5235 5243 5275 5324 5380 5548 5450 5549 5592 5621 5681 5651 5602 5550 5478 5445 5502 5598 5736 5862 5917 5955 6018 5918 5827 5753 5679 5588 5567 5574 5454 5635 5538 5336 5198 5139 5127 5105 5149 5163 5267 5168 5239 5381 5451 5325 5208 5071 5065 4980 5004 4981 4929 4876 4863 4774 4756 4806 4757 4789 4833 4867 4883 4904 4991 5018 5087 5179 5228 5382 5383 5319 5268 5191 5326 5307 5341 5320 5316 5342 5431 5531 5553 5636 5703 5839 5802 5746 5815 5796 5732 5810 5850 5831 5941 6014 5957 5956 6053 6252 6239 6210 6070 6140 6257 6333 6402 6422 6447 6470 6496 6520 6578 6613 6683 6684 6712 6815 6826 6933 6911 6858 6814 6825 6869 6802 6682 6652 6612 6584 6611 6577 6518 6491 6409 6330 6372 6421 6331 6392 6393 6532 6519 6273 6238 6153 6126 6180 6052 5953 5954 5874 5787 5849 5848 5675 5617 5721 5720 5889 6007 6190 6329 6366 6328 6285 6294 6209 6152 6093 6214 6202 6301 6371 6408 6370 6343 6342 6375 6400 6516 6499 6505 6515 6568 6665 6662 6679 6670 6829 6722 6700 6650 6678 6721 6760 6736 6744 6824 6835 6871 6902 6929 6955 6964 6940 6969 6947 6970 6919 6879 6865 6847 6810 6799 6807 6761 6717 6680 6643 6607 6551 6477 6401 6365 6383 6348 6466 6517 6556 6567 6610 6609 6608 6644 6723 6707 6651 6681 6694 6777 6857 6909 6910 7010 7007 7011 6973 6976 6925 6899 6872 6880 6763 6775 6796 6762 6745 6698 6685 6686 6701 6653 6638 6570 6615 6630 6614 6585 6569 6506 6423 6432 6334 6357 6442 6468 6545 6525 6521 6497 6561 6586 6571 6616 6635 6702 6746 6756 6764 6778 6797 6803 6836 6804 6737 6655 6593 6492 6455 6403 6332 6302 6276 6203 6122 6125 6104 6094 6113 6184 6143 5996 5931 6066 6015 5994 6019 6054 6086 6105 6154 6195 6243 6224 6295 6298 6277 6373 6439 6522 6533 6876 6886 6884 6875 6827 6907 6965 6920 6924 6908 6900 6906 6915 6945 7021 7017 7013 6993 7000 6997 7030 7044 6963 6956 6914 6891 6913 6937 6983 6982 6981 6941 6938 6942 6912 6904 6877 6714 6713 6656 6687 6718 6798 6844 6881 6873 6840 6870 6811 6816 6765 6654 6632 6624 6617 6587 6562 6579 6523 6471 6336 6320 6309 6271 6106 6037 5958 5912 5934 6008 6129 6155 6156 6157 6168 6247 6240 6303 6337 6424 6495 6552 6560 6622 6688 6747 6800 6806 6828 6852 6883 6905 6932 6935 6946 6966 6967 6986 6989 7022 7053 7080 7078 7074 7072 7071 7070 7061 7060 7059 7055 7054 7051 7048 7049 7042 7038 7034 7033 7028 7023 7016 7012 6999 6988 6959 6980 6968 6974 6949 6922 6888 6864 6846 6848 6808 6748 6735 6782 6772 6729 6709 6646 6574 6645 6623 6433 6472 6485 6349 6350 6185 6179 6219 6256 6367 6351 6289 6130 5860 5676 5589 5505 5504 5503 5580 5421 5399 5390 5323 5310 5305 5293 5294 5295 5410 5443 5474 5490 5483 5475 5400 5452 5581 5453 5401 5245 5196 5153 5158 5246 5283 5344 5513 5529 5619 5646 5773 5779 5805 5882 5854 5937 6055 6020 5990 5905 5853 5819 5677 5645 5697 5818 5821 6027 6158 6159 6196 6889 6923 6926 6944 6975 6979 6990 6991 7014 6984 6859 6855 6766 6671 6588 6542 6434 6376 6425 6241 6272 5752 5514 5506 6057 5962 5908 5856 5879 5942 5895 5894 5932 5936 6123 6096 6056 6028 5999 5987 5935 5945 5890 5797 5738 5750 5664 5689 5705 5751 5778 5785 5784 5822 5866 5858 5855 5656 5590 5438 5564 5571 5551 5432 5386 5317 5271 5345 5272 4821 4676 4698 5093 5057 5070 4878 5012 5037 5003 4889 4792 4743 4547 4607 4627 4604 4517 4357 4337 4329 4187 4183 4097 3957 3989 3972 3983 3917 3922 3971 4004 4048 4186 4173 4180 4252 4308 4376 4366 4372 4280 4156 3988 3947 4031 4037 4011 3981 3990 3970 4008 4071 4028 4035 3894 3761 3754 3768 3847 3882 3893 3795 3750 3671 3571 3475 3401 3397 3327 3315 3328 3293 3298 3263 3251 3245 3217 3226 3233 3259 3188 3166 3082 3060 3028 3069 3124 3097 3203 3266 3316 3371 3430 3482 3497 3495 3546 3647 3664 3665 3608 3673 3587 3588 3563 3525 3509 3444 3510 3557 3572 3626 3721 3822 3772 3799 3870 3904 3814 3871 3861 3859 4025 4013 4080 4162 4336 4349 4328 4201 4188 4178 4199 4320 4420 4335 4431 4534 4538 4460 4397 4358 4428 4498 4530 4518 4381 4422 4305 4290 4304 4284 4175 4189 4090 4217 4218 4179 4219 3951 3280 3106 3416 3437 3459 3457 3518 3479 3594 3618 3650 3651 3722 3736 3789 3796 3790 3765 3837 3840 3874 3838 3791 3925 3978 3956 3977 3995 3943 3906 3875 3851 3924 3936 3976 4021 4044 3975 3918 3873 3872 3974 4041 4033 3984 3973 3898 3788 3823 3836 3756 3703 3610 3578 3526 3487 3428 3429 3451 3423 3394 3329 3317 3296 3337 3393 3478 3504 3616 3589 3558 3524 3559 3522 3560 3590 3649 3628 3648 3676 3696 3666 3586 3517 3533 3499 3477 3462 3489 3476 3431 3411 3382 3392 3355 3292 3255 3247 3189 3159 3183 3218 3246 3302 3321 3320 3253 3260 3206 3191 3201 3187 3130 3126 3064 3063 3062 3073 3041 3044 3061 3066 3068 3035 3013 3006 3012 2915 2871 2789 2736 2814 2842 2868 2877 2866 2865 2825 2707 2623 2603 2644 2654 2671 2703 2734 2815 2786 2785 2751 2731 2624 2569 2543 2566 2585 2592 2600 2584 2572 2595 2575 2615 2609 2593 2546 2515 2493 2498 2477 2451 2468 2492 2542 2555 2558 2559 2556 2547 2541 2573 2574 2568 2540 2500 2508 2539 2554 2565 2571 2564 2522 2478 2480 2495 2557 2617 2599 2627 2652 2720 2706 2685 2675 2643 2618 2653 2610 2611 2596 2662 2716 2723 2784 2802 2864 2839 2813 2797 2783 2778 2767 2766 2770 2738 2683 2705 2727 2732 2709 2667 2629 2622 2665 2711 2760 2768 2840 2878 2841 2810 2887 2943 2992 3072 3022 3092 3059 3047 3033 3011 2974 2928 2945 2942 2961 2931 2759 2777 2821 2880 2938 3009 3017 3010 3058 3121 3132 3157 3155 3160 3211 3273 3323 3330 3333 3347 3350 3297 3314 3341 3402 3422 3455 3474 3486 3498 3537 3556 3562 3607 3707 3715 3720 3714 3661 3545 3516 3481 3458 3491 3425 3568 3663 3682 3719 3740 3794 3800 3849 3887 3899 3833 3819 3862 3892 3921 4007 4019 4074 4073 4084 4106 4125 4196 4223 4288 4270 4185 4109 4065 4016 3912 3869 3834 3886 3881 3803 3787 3689 3684 3652 3630 3757 3852 3941 4045 3991 3911 3897 3950 4036 4067 4142 4161 4238 4307 4266 4345 4368 4421 4400 4363 4347 4271 4253 4167 4249 4292 4289 4401 4497 4466 4524 4537 4568 4594 4506 4546 4642 4836 4953 5017 5056 5106 5157 5181 5195 5230 5222 5091 5001 5011 5002 5064 5092 5136 5182 5306 5343 5329 5331 5385 5296 5118 5135 5188 5129 5180 5292 5282 5304 5355 5393 5493 5570 5593 5610 5622 5638 5723 5687 5688 5749 5851 5826 5852 5959 6095 5817 5624 5596 5559 5557 5540 5569 5623 5637 5696 5832 5898 5748 5686 5714 5713 5747 5722 5702 5615 5560 5520 5527 5498 5457 5356 5269 5205 5403 5405 5388 5358 5251 5270 5337 5348 5408 5528 5406 5353 5354 5411 5387 5389 5409 5384 5303 5244 5247 5134 5150 5229 5221 5128 5035 4998 5020 5054 5055 5147 5102 5090 5053 4877 4847 4799 4748 4701 4624 4632 4543 4536 4606 4665 4658 4690 4751 4741 4742 4760 4865 4992 4915 4862 4895 5000 5036 5030 4960 4925 4849 4984 4985 4986 4961 4916 4934 4901 4855 4840 4845 4738 4697 4772 4702 4667 4550 4677 4673 4617 4549 4582 4565 4516 4465 4354 4435 4472 4505 4630 4671 4704 4726 4737 4791 4848 4820 4819 4910 5019 5046 5022 4993 5089 4983 4982 4921 4933 4868 4966 5016 5088 5033 4900 4834 4790 4761 4725 4670 4636 4513 4581 4656 4684 4637 4724 4746 4767 4723 4722 4683 4638 4655 4588 4563 4447 4495 4520 4440 4375 4315 4241 4168 4094 4092 4040 4059 4024 4015 3968 3996 3930 3817 3784 3762 3672 3830 3987 4108 4133 4231 4303 4411 4427 4360 4285 4344 4407 4414 4453 4496 4508 4558 4647 4552 4444 4406 4317 4235 4216 4159 4273 4243 4226 4195 4166 4078 4005 4070 4061 4060 4184 4182 4172 4135 4134 4098 4064 3997 3969 3885 3876 3766 3737 3739 3785 3835 3868 3858 3907 3807 3854 3879 3880 3808 3747 3718 3702 3729 3683 3675 3744 3759 3786 3802 3709 3694 3631 3656 3624 3583 3539 3530 3484 3449 3438 3445 3496 3519 3541 3645 3693 3692 3615 3617 3542 3551 3550 3549 3601 3623 3655 3742 3783 3878 3867 3938 3999 4047 4043 4091 4177 4131 4100 4103 4132 4203 4248 4356 4468 4494 4522 4541 4654 4653 4626 4615 4580 4539 4493 4434 4394 4395 4343 4353 4396 4302 4291 4215 4147 4083 4058 3903 3813 3844 3771 3760 3643 3662 3644 3712 3705 3515 3414 3389 3378 3388 3351 3290 3334 3240 3117 3093 3116 3115 3147 3163 3139 3090 3054 3031 2987 2949 2898 2929 2897 2860 2832 2826 2754 2896 2895 2879 2859 2856 2894 2995 2983 2936 2990 2969 3002 3025 3076 3037 3053 3088 3052 3078 3114 3146 3177 3178 3237 3230 3223 3238 3213 3231 3239 3265 3309 3308 3336 3286 3387 3370 3377 3471 3472 3528 3600 3582 3540 3470 3447 3408 3295 3307 3176 3113 3051 3001 3000 3046 3112 3175 3167 3190 3236 3325 3258 3305 3306 3346 3461 3469 3426 3433 3468 3521 3520 3597 3681 3733 3777 3821 3812 3797 3738 3622 3657 3466 3454 3467 3440 3412 3400 3386 3361 3363 3365 3304 3222 3261 3235 3229 3193 3108 3045 3015 2948 2989 3103 3138 3174 3158 3111 3086 3050 2999 2988 2888 2914 2817 2803 2831 2889 2890 2891 2892 2940 2932 2893 2753 2799 2752 2661 2691 2742 2726 2690 2724 2733 2708 2630 2625 2641 2631 2591 2549 2551 2590 2594 2597 2607 2634 2660 2672 2692 2693 2656 2694 2663 2598 2621 2640 2695 2696 2697 2681 2648 2620 2605 2550 2567 2604 2628 2642 2666 2698 2746 2781 2782 2792 2787 2833 2861 2899 2913 2886 2900 2930 2972 2980 2985 2971 2996 3043 3067 3008 3055 3084 3104 3162 3179 3165 3243 3242 3208 3241 3254 3310 3287 3300 3311 3345 3419 3441 3473 3442 3443 3413 3275 3279 3352 3359 3312 3313 3390 3409 3508 3488 3507 3552 3584 3553 3544 3592 3611 3646 3632 3593 3543 3503 3523 3554 3564 3485 3391 3385 3357 3349 3354 3395 3417 3403 3399 3396 3415 3434 3421 3404 3435 3456 3555 3595 3606 3605 3603 3602 3585 3591 3577 3506 3436 3366 3364 3291 3289 3282 3199 3210 3224 3262 3186 3107 3127 3081 3021 3123 3144 3170 3172 3161 3129 3094 3040 3020 2978 2933 2937 2966 2965 2934 2912 2875 2851 2863 2750 2712 2668 2680 2612 2651 2638 2686 2679 2725 2702 2769 2857 2882 2906 2955 2963 2975 3019 3026 2994 3038 3077 3091 3100 3120 3148 3145 3119 3153 3181 3195 3182 3141 3185 3225 3250 3219 3244 3326 3319 3301 3249 3288 3271 3268 3232 3192 3204 3221 3215 3180 3168 3125 3099 3070 3071 3016 3003 2964 2952 2944 2973 3004 3032 3056 3080 3079 3102 3118 3140 3105 3098 3074 3057 2993 3005 2984 2904 2918 2953 2941 2954 2905 2884 2881 2838 2820 2837 2795 2796 2758 2739 2714 2674 2659 2637 2646 2658 2701 2730 2717 2713 2588 2589 2563 2583 2504 2538 2537 2536 2519 2553 2582 2608 2636 2700 2757 2780 2776 2903 2951 2968 2950 2927 2917 2876 2901 2902 2870 2836 2756 2749 2755 2744 2794 2835 2834 2822 2747 2699 2718 2673 2650 2579 2552 2534 2580 2581 2606 2657 2676 2687 2682 2635 2655 2570 2562 2503 2490 2469 2449 2433 2420 2400 2450 2460 2464 2426 2376 2375 2351 2354 2297 2287 2306 2319 2365 2377 2421 2427 2388 2378 2352 2363 2355 2389 2391 2390 2404 2431 2428 2440 2458 2454 2473 2496 2507 2512 2502 2476 2491 2470 2430 2405 2422 2382 2379 2364 2335 2328 2331 2324 2330 2309 2296 2300 2290 2288 2293 2259 2235 2258 2257 2298 2318 2350 2360 2385 2383 2409 2419 2374 2349 2325 2317 2316 2307 2286 2268 2255 2256 2249 2243 2207 2208 2209 2187 2150 2147 2168 2193 2194 2221 2199 2211 2219 2232 2262 2285 2356 2346 2347 2348 2373 2418 2444 2456 2465 2489 2488 2514 2535 2499 2487 2437 2417 2403 2425 2416 2448 2467 2486 2457 2475 2497 2453 2434 2395 2408 2394 2402 2439 2485 2513 2533 2561 2517 2510 2506 2520 2511 2494 2484 2479 2462 2463 2432 2397 2399 2384 2368 2362 2345 2333 2359 2332 2303 2299 2274 2276 2263 2271 2246 2247 2223 2220 2261 2305 2308 2295 2321 2329 2338 2289 2266 2245 2231 2218 2196 2185 2186 2183 2173 2158 2161 2162 2164 2177 2127 2143 2145 2182 2197 2212 2213 2201 2190 2172 2181 2163 2156 2133 2146 2157 2153 2144 2132 2125 2122 2092 2071 2070 2062 2068 2089 2100 2101 2059 2035 2013 2011 2017 2008 2010 2015 2012 2018 2027 2042 2049 2086 2078 2067 2063 2055 2038 2052 2057 2069 2077 2079 2080 2095 2102 2103 2116 2112 2119 2134 2128 2109 2104 2107 2110 2096 2076 2081 2072 2082 2093 2105 2108 2113 2137 2135 2139 2130 2136 2117 2155 2169 2170 2124 2114 2097 2075 2099 2094 2083 2073 2056 2043 2030 2037 2040 2044 2041 2036 2029 2024 2019 2003 1994 1989 1984 1982 1983 1981 1973 1961 1952 1955 1953 1943 1936 1935 1942 1949 1956 1958 1966 1960 1967 1971 1972 1979 1990 2000 2002 2001 2007 2009 2014 2028 2016 2033 2026 2025 1991 1992 1978 1968 1970 1969 1959 1948 1947 1940 1932 1919 1887 1854 1828 1827 1821 1822 1813 1809 1796 1792 1791 1781 1777 1755 1735 1761 1788 1787 1795 1794 1808 1820 1819 1812 1807 1776 1775 1747 1723 1748 1749 1724 1689 1671 1688 1707 1722 1746 1774 1786 1793 1806 1811 1805 1804 1803 1785 1773 1784 1772 1771 1783 1782 1756 1738 1715 1714 1713 1737 1736 1712 1697 1679 1680 1698 1699 1661 1662 1663 1681 1682 1716 1717 1718 1739 1740 1719 1700 1701 1683 1664 1665 1648 1666 1684 1685 1702 1720 1757 1770 1741 1742 1721 1743 1744 1745 1706 1705 1704 1703 1667 1649 1619 1634 1650 1651 1668 1669 1652 1635 1636 1686 1687 1670 1653 1637 1621 1620 1605 1593 1574 1562 1561 1592 1591 1604 1603 1618 1633 1632 1617 1616 1615 1631 1647 1614 1613 1630 1629 1585 1586 1601 1602 1587 1569 1556 1570 1571 1557 1543 1530 1491 1500 1490 1474 1461 1475 1476 1462 1477 1492 1501 1517 1531 1544 1558 1572 1588 1589 1590 1573 1559 1560 1545 1532 1518 1502 1493 1479 1478 1452 1453 1494 1503 1504 1505 1519 1533 1546 1563 1575 1594 1595 1606 1596 1576 1577 1564 1565 1534 1535 1547 1536 1553 1537 1523 1513 1499 1488 1512 1510 1496 1482 1467 1454 1466 1465 1480 1481 1509 1521 1520 1508 1507 1506 1495 1463 1464 1436 1426 1427 1446 1437 1455 1456 1468 1469 1449 1445 1438 1433 1443 1444 1432 1421 1414 1411 1402 1397 1386 1378 1369 1364 1363 1367 1368 1377 1376 1382 1381 1393 1394 1383 1395 1384 1385 1396 1401 1403 1410 1420 1424 1429 1428 1418 1419 1409 1400 1399 1408 1407 1406 1417 1416 1405 1404 1398 1392 1391 1390 1380 1373 1372 1371 1365 1359 1352 1345 1342 1336 1325 1329 1335 1337 1346 1347 1360 1374 1375 1366 1362 1361 1353 1348 1349 1344 1340 1339 1343 1338 1333 1334 1328 1341 1350 1354 1355 1351 1356 1357 1370 1379 1387 1412 1415 1430 1439 1434 1440 1431 1423 1435 1442 1441 1447 1448 1458 1459 1473 1486 1484 1498 1514 1522 1525 1555 1567 1580 1600 1607 1608 1611 1628 1645 1658 1625 1626 1641 1643 1656 1657 1646 1655 1642 1609 1610 1623 1627 1624 1612 1597 1598 1583 1568 1566 1539 1527 1552 1551 1550 1549 1540 1538 1524 1511 1497 1485 1471 1472 1451 1450 1457 1460 1470 1483 1487 1526 1548 1554 1579 1581 1584 1578 1582 1644 1640 1622 1639 1638 1654 1672 1690 1725 1758 1759 1766 1760 1750 1732 1726 1708 1694 1691 1692 1673 1727 1767 1762 1752 1751 1729 1733 1728 1695 1677 1693 1678 1674 1675 1659 1676 1696 1710 1709 1711 1730 1731 1734 1754 1769 1780 1790 1801 1798 1778 1753 1765 1763 1768 1779 1789 1797 1800 1802 1810 1815 1814 1823 1824 1816 1817 1818 1825 1832 1836 1835 1831 1829 1830 1834 1833 1837 1842 1847 1849 1855 1850 1851 1848 1843 1838 1844 1845 1839 1846 1853 1858 1861 1865 1873 1878 1877 1871 1872 1870 1869 1868 1864 1857 1852 1856 1860 1859 1863 1867 1866 1876 1875 1879 1880 1882 1883 1881 1884 1889 1895 1897 1904 1905 1912 1918 1911 1917 1916 1909 1910 1903 1899 1896 1893 1890 1894 1891 1888 1886 1885 1892 1898 1902 1901 1908 1914 1915 1926 1925 1933 1954 1951 1941 1934 1927 1920 1921 1928 1922 1937 1950 1957 1974 1980 1975 1965 1962 1985 1986 1987 1996 1995 2004 2020 2005 1997 2021 2031 2032 2050 2045 2048 2039 2058 2074 1993 2051 2053 2087 2034 2060 2022 1976 1944 2006 2210 2501 2548 2619 2601 2516 2602 2664 2771 2773 2850 2804 2816 2811 2808 2800 2761 2740 2809 2858 2843 2805 2807 2762 2735 2745 2748 2774 2790 2791 2801 2852 2867 2922 2885 2869 2818 2853 2819 2788 2793 2798 2844 2763 2764 2845 2846 2907 2908 2956 2957 2958 2909 2910 2847 2848 2765 2639 2586 2587 2544 2423 2381 2380 2353 2233 2188 2151 2115 2098 1988 1906 1900 1929 1930 1923 1924 1931 1939 1938 1945 1964 1963 1977 1998 2023 2047 2046 2123 2189 2452 2545 2704 2849 2911 2959 3007 3065 3318 3480 3653 3979 4136 4137 4220 4221 4222 4499 4398 4583 4657 4892 5013 4896 4969 5062 5103 5132 5183 5140 5141 5586 5639 5661 5706 5780 6166 6242 6524 6111 5968 4062 3256 2523 1913 1907 1862 1946 1799 1422 1413 1388 1217 1283 1358 1425 1599 1764 1840 1874 1826 1224 1160 1207 1126 1113 1087 1070 998 943 819 744 650 643 395 174 100 44 45 173 165 114 99 98 106 109 116 123 122 120 117 115 113 105 101 97 94 89 83 80 81 84 87 90 95 91 85 86 77 73 72 70 68 66 64 63 60 57 53 52 49 40 39 36 34 33 32 31 30 28 27 25 23 21 20 19 18 16 17 8 12 6 10 2 1 3 5 4 7 9 11 13 15 14 22 24 26 29 35 37 38 42 41 43 46 47 48 50 51 54 56 59 62 55 58 61 65 67 69 71 74 75 76 78 79 82 88 92 93 96 104 103 102 108 119 124 125 126 129 128 130 132 131 134 135 136 137 139 138 140 141 154 153 152 150 147 143 142 146 145 148 149 151 156 155 158 159 157 160 161 162 164 163 166 167 169 168 172 171 176 180 177 179 178 181 182 184 183 186 185 190 191 193 198 192 197 196 199 200 202 204 203 206 210 215 211 209 207 216 218 220 223 222 225 226 230 229 236 233 235 242 246 247 249 253 261 250 254 251 256 257 258 262 259 263 260 265 270 269 264 268 274 273 275 277 276 279 280 278 281 282 283 285 284 288 290 287 286 289 291 292 293 296 299 310 314 313 309 308 304 303 302 295 294 298 301 297 300 305 306 307 312 311 315 316 317 318 320 323 328 338 337 343 344 329 324 325 319 326 330 345 367 386 366 355 354 353 384 385 394 410 393 409 417 429 408 407 416 428 441 427 440 452 451 460 450 426 425 415 449 469 448 439 424 438 437 447 423 406 405 383 392 404 403 422 436 421 420 391 382 365 352 364 380 381 402 414 401 390 379 363 351 342 336 350 362 341 349 361 378 360 359 348 335 334 333 322 321 327 331 332 347 377 376 375 358 374 373 400 413 399 372 346 340 339 357 389 398 397 396 388 371 370 356 369 368 387 411 432 433 444 455 463 474 473 472 454 443 431 430 442 453 462 471 461 470 480 486 494 493 508 514 509 501 502 510 511 503 495 487 481 482 488 496 489 497 504 498 491 484 479 465 478 477 476 490 483 475 464 456 457 418 412 419 434 445 458 459 466 467 446 435 468 485 492 499 505 512 516 520 519 515 518 525 529 543 542 535 536 531 527 528 524 523 522 517 507 500 506 513 521 526 530 534 541 540 533 532 539 546 547 548 549 551 553 556 561 565 570 577 564 563 582 598 605 604 597 596 595 594 607 603 602 601 591 592 593 584 585 586 579 580 587 588 581 574 575 576 569 568 573 567 562 557 558 555 559 560 552 545 550 554 566 572 571 578 583 590 589 606 599 600 610 617 611 612 618 625 633 626 619 620 613 614 628 627 634 642 649 641 624 623 622 616 609 631 638 656 639 632 640 657 663 662 693 711 862 820 811 802 794 793 788 787 792 791 816 808 817 809 801 810 818 835 834 840 833 832 831 839 844 853 852 861 843 830 826 838 825 814 824 829 842 860 851 850 859 858 849 848 847 846 857 856 867 868 874 875 890 886 878 872 873 866 865 864 863 877 882 885 884 881 876 880 888 893 898 904 906 907 908 905 899 894 889 895 896 900 901 913 912 911 916 917 919 921 928 927 926 920 934 935 936 947 940 929 922 923 930 931 937 942 949 948 941 953 958 959 954 955 960 963 966 971 975 978 983 987 990 986 989 981 982 973 974 970 965 969 968 972 977 980 985 994 995 996 1000 1001 1002 997 992 1006 1012 1005 1011 1010 1009 1016 1017 1025 1024 1023 1036 1049 1055 1063 1073 1085 1079 1074 1067 1059 1060 1061 1056 1052 1050 1046 1051 1043 1044 1039 1033 1028 1038 1037 1032 1026 1027 1018 1019 1020 1021 1030 1029 1034 1040 1041 1045 1057 1064 1062 1068 1075 1076 1086 1091 1093 1097 1096 1099 1105 1106 1112 1120 1125 1137 1138 1140 1146 1147 1161 1173 1183 1199 1192 1193 1185 1182 1172 1171 1176 1188 1198 1214 1202 1203 1208 1210 1216 1219 1209 1194 1189 1184 1177 1178 1186 1191 1190 1200 1204 1205 1206 1218 1223 1229 1230 1243 1237 1246 1245 1236 1235 1222 1215 1225 1228 1226 1231 1242 1233 1234 1238 1244 1250 1255 1251 1256 1257 1264 1273 1272 1271 1278 1276 1270 1263 1261 1258 1252 1253 1259 1267 1266 1268 1275 1277 1282 1281 1286 1291 1290 1303 1293 1298 1299 1287 1288 1279 1289 1295 1294 1300 1296 1301 1309 1315 1310 1319 1324 1323 1327 1322 1326 1332 1331 1330 1321 1318 1314 1308 1307 1313 1306 1317 1320 1316 1312 1305 1311 1304 1302 1297 1292 1285 1284 1280 1274 1269 1265 1262 1260 1254 1247 1249 1248 1241 1240 1239 1232 1221 1227 1220 1211 1212 1213 1201 1196 1197 1187 1181 1170 1168 1159 1152 1151 1145 1144 1139 1143 1142 1136 1141 1150 1157 1156 1166 1167 1158 1175 1180 1195 1179 1174 1169 1165 1164 1149 1129 1118 1107 1102 1101 1092 1089 1098 1080 1082 1071 1069 1077 1081 1078 1083 1088 1090 1094 1100 1104 1103 1108 1109 1115 1114 1117 1121 1122 1128 1130 1135 1131 1132 1133 1134 1123 1127 1124 1119 1116 1111 1110 1095 1084 1072 1066 1065 1058 1054 1047 1048 1042 1035 1031 1022 1013 1014 1015 1008 1004 1007 1003 999 993 991 988 984 979 976 967 964 957 952 946 945 951 950 962 961 956 944 939 938 932 924 933 925 918 914 909 915 910 903 902 897 892 891 887 883 879 869 870 871 854 855 845 836 821 822 841 837 828 823 803 804 805 812 813 795 796 797 798 799 806 815 827 807 800 786 780 775 767 745 779 781 789 790 785 782 783 784 778 772 771 760 770 769 777 776 768 759 758 753 746 742 736 730 720 712 704 705 699 694 686 687 680 673 674 664 665 681 682 688 706 713 725 721 714 707 715 716 717 708 700 695 689 683 675 666 659 658 651 644 645 635 629 630 636 647 646 653 652 660 669 668 667 676 677 684 690 696 701 702 703 709 718 719 728 727 723 722 726 
