Best cost: 87511
Time: 25309.2
Route:
1551 1547 1542 1538 1536 1541 1531 1524 1514 1515 1516 1527 1520 1512 1506 1513 1510 1507 1497 1503 1487 1473 1484 1482 1481 1463 1479 1477 1476 1474 1471 1466 1467 1464 1462 1449 1428 1423 1440 1443 1453 1457 1456 1448 1445 1455 1450 1451 1447 1439 1435 1408 1420 1431 1442 1441 1437 1429 1422 1425 1426 1427 1419 1421 1415 1407 1409 1403 1404 1395 1398 1411 1375 1361 1338 1359 1384 1396 1397 1402 1394 1382 1389 1386 1385 1381 1372 1367 1383 1357 1358 1380 1354 1352 1347 1342 1340 1341 1355 1349 1339 1309 1337 1335 1322 1336 1330 1327 1333 1325 1316 1318 1300 1285 1251 1255 1225 1210 1177 1110 1129 1141 1150 1159 1147 1140 1137 1148 1170 1176 1199 1213 1220 1205 1217 1218 1214 1223 1229 1244 1236 1273 1265 1281 1274 1271 1272 1286 1297 1298 1295 1301 1275 1283 1288 1289 1291 1292 1284 1276 1269 1267 1243 1248 1256 1264 1266 1260 1219 1209 1208 1187 1128 1106 1098 1061 1065 1031 1021 1011 947 893 894 874 848 827 797 815 898 913 916 940 958 1002 1004 1007 1009 1019 1025 1161 1198 1211 1202 1192 1108 1052 1014 992 997 928 925 908 833 864 880 884 892 910 905 909 915 926 914 918 895 882 888 886 854 823 831 836 824 818 796 794 786 805 777 768 784 754 696 668 675 667 645 660 649 617 602 583 592 581 564 593 604 611 629 638 652 569 559 517 498 499 525 502 482 461 458 459 465 471 480 484 485 481 478 479 477 469 464 462 460 450 438 434 393 389 385 371 374 367 360 358 346 335 338 319 318 315 320 314 316 321 324 323 331 340 349 355 347 363 375 384 387 398 409 408 413 410 407 406 405 419 412 425 401 391 390 368 380 381 357 353 359 376 372 373 365 339 336 351 330 327 307 304 301 306 299 295 293 289 279 285 296 291 286 294 292 290 298 302 305 303 297 287 280 278 281 282 284 283 277 272 269 268 275 276 274 271 270 266 267 262 259 258 254 253 252 249 246 244 243 239 240 250 251 247 242 238 236 235 232 233 231 234 230 229 225 228 226 257 237 248 223 220 219 218 216 215 213 209 204 202 200 198 195 210 203 199 196 191 179 175 54 28 11 35 38 30 47 55 44 34 43 50 59 71 78 93 82 73 67 108 109 128 151 164 182 170 161 137 127 139 145 153 144 156 150 140 136 138 122 118 97 80 74 100 115 113 105 92 79 61 42 36 20 25 23 39 60 70 75 76 62 52 45 51 49 41 53 57 69 94 107 114 121 120 152 146 143 169 157 149 148 158 147 155 135 142 125 129 134 141 159 163 168 167 162 166 171 165 160 154 131 119 117 89 83 103 123 124 110 101 98 102 99 96 81 90 91 106 88 104 112 111 116 130 132 133 126 95 84 72 58 32 29 21 15 10 19 27 48 46 37 40 56 63 68 66 64 77 86 85 87 65 33 31 24 26 22 18 13 14 12 9 8 7 17 5 6 4 3 2 1 16 174 173 172 184 180 187 192 193 208 194 189 188 181 185 183 178 176 177 186 190 197 212 205 207 201 206 211 214 217 222 224 221 227 241 245 261 263 264 260 255 256 265 273 288 424 437 342 429 420 415 397 411 416 312 443 442 452 487 490 493 473 466 453 444 445 454 467 446 447 457 456 455 474 513 494 504 523 524 552 563 678 680 663 670 676 673 648 614 632 624 640 641 633 626 628 621 609 591 577 565 551 537 522 531 530 521 520 529 536 550 572 573 588 607 677 713 743 740 771 750 755 762 769 752 745 728 724 716 708 701 702 694 690 679 665 681 705 725 671 666 657 647 643 644 620 619 636 659 711 729 741 748 773 779 790 825 840 842 822 821 763 761 744 735 738 726 742 759 757 698 686 693 704 714 737 749 770 774 782 788 846 785 772 712 687 658 642 650 622 627 615 610 594 598 578 574 579 567 560 526 508 516 515 518 514 510 489 497 501 506 538 532 505 495 488 472 468 470 451 448 431 417 418 414 395 400 396 379 366 364 345 341 337 334 329 322 317 310 309 308 300 311 350 348 344 352 354 377 382 356 369 378 388 394 399 428 463 475 476 483 486 491 496 534 545 544 566 575 587 570 612 590 606 625 669 682 672 661 719 674 582 589 556 543 539 500 441 433 430 427 426 423 422 421 402 403 404 392 383 370 361 362 343 325 326 313 328 332 333 386 436 432 435 439 440 449 492 507 509 533 542 555 571 576 653 584 600 599 595 605 601 608 637 635 631 597 580 554 541 540 553 547 546 558 557 561 596 586 646 662 692 683 691 700 715 718 710 706 709 722 688 739 732 730 721 699 703 697 717 723 760 792 875 887 912 949 1005 998 960 853 883 901 900 879 876 851 838 867 872 936 955 990 972 979 966 963 968 977 995 991 978 974 987 989 988 986 984 971 981 973 969 967 959 964 951 962 953 950 946 945 941 930 939 999 1001 1027 1013 1017 1018 1022 1030 1043 1024 1010 1003 1028 1062 1071 1076 1078 1083 1096 1116 1131 1103 1080 1074 1093 1114 1138 1156 1178 1168 1180 1184 1239 1259 1268 1183 1195 1179 1136 1200 1189 1118 1058 1085 1056 1046 1032 938 934 922 865 803 810 802 800 799 811 793 751 808 807 814 817 826 832 839 868 885 829 828 850 798 844 841 852 780 801 809 816 820 834 849 896 921 927 933 937 980 970 957 956 961 965 994 1016 1020 1037 1035 1047 1064 1109 1115 1175 1146 1158 1153 1144 1133 1121 1117 1120 1100 1127 1134 1172 1173 1196 1249 1242 1257 1250 1241 1224 1207 1181 1167 1149 1099 1092 1082 1077 1054 1051 1050 1042 1067 1084 1201 1247 1232 1212 1174 1169 1151 1160 1157 1152 1145 1142 1132 1143 1119 1111 1101 1095 1075 1048 1023 1008 976 943 924 904 897 890 907 899 911 920 919 873 858 855 863 860 866 859 856 837 764 758 767 781 787 806 791 765 766 736 720 689 664 656 655 623 562 535 512 528 527 519 511 503 549 548 568 585 613 639 651 685 753 783 813 819 889 917 983 954 877 847 778 734 727 695 684 630 618 603 616 634 707 654 731 733 776 775 835 756 795 804 845 861 878 871 870 902 985 1006 1012 996 948 932 935 903 929 944 975 952 982 942 931 923 906 891 881 830 789 747 746 812 843 869 857 862 1000 1015 993 1069 1081 1089 1107 1113 1122 1123 1130 1282 1278 1277 1351 1346 1360 1509 1517 1525 1519 1518 1529 1543 1544 1545 1550 1561 1565 1572 1573 1562 1546 1539 1530 1502 1494 1499 1436 1364 1363 1326 1328 1321 1315 1310 1314 1313 1254 1233 1240 1245 1227 1215 1221 1238 1234 1231 1228 1197 1194 1190 1203 1191 1222 1252 1263 1294 1299 1331 1319 1323 1306 1262 1226 1162 1155 1102 1097 1087 1104 1090 1079 1125 1154 1188 1235 1303 1302 1324 1332 1353 1392 1401 1365 1371 1377 1374 1378 1379 1387 1390 1414 1417 1424 1434 1444 1469 1480 1492 1500 1505 1490 1475 1452 1438 1465 1486 1493 1485 1488 1491 1470 1433 1412 1406 1369 1373 1376 1399 1458 1413 1362 1366 1350 1344 1345 1343 1334 1320 1312 1293 1296 1287 1204 1163 1126 1070 1066 1040 1034 1045 1038 1026 1029 1053 1057 1063 1036 1041 1055 1044 1105 1135 1164 1182 1185 1139 1171 1186 1124 1112 1094 1073 1086 1088 1091 1072 1068 1033 1039 1049 1059 1060 1165 1166 1193 1206 1237 1246 1230 1216 1253 1258 1261 1270 1280 1290 1308 1305 1311 1279 1304 1307 1317 1329 1348 1356 1368 1391 1393 1400 1370 1388 1405 1410 1418 1430 1489 1532 1559 1574 1579 1588 1570 1557 1548 1537 1534 1535 1528 1549 1533 1523 1522 1526 1540 1511 1504 1472 1468 1459 1416 1432 1446 1454 1460 1461 1478 1483 1496 1495 1498 1501 1508 1521 1555 1556 1566 1567 1563 1568 1578 1577 1576 1597 1604 1619 1615 1603 1590 1589 1596 1595 1594 1618 1622 1626 1625 1637 1646 1636 1645 1652 1660 1670 1674 1688 1692 1693 1696 1684 1689 1687 1712 1725 1727 1723 1715 1710 1720 1707 1708 1699 1698 1694 1679 1678 1651 1634 1611 1599 1586 1616 1614 1609 1612 1613 1617 1643 1666 1697 1719 1738 1735 1734 1733 1731 1736 1740 1737 1745 1747 1753 1754 1755 1756 1757 1760 1761 1762 1763 1765 1766 1768 1769 1771 1773 1778 1781 1785 1774 1780 1786 1784 1775 1779 1783 1789 1787 1796 1802 1797 1804 1803 1806 1808 1814 1817 1816 1821 1823 1826 1819 1813 1815 1829 1841 1834 1845 1837 1825 1830 1836 1847 1850 1851 1853 1855 1865 1871 1870 1867 1864 1854 1849 1843 1846 1884 1886 1881 1880 1848 1887 1894 1907 1921 1927 1954 1959 1957 1952 1953 1948 1941 1929 1931 1925 1926 1917 1905 1895 1899 1904 1900 1891 1896 1892 1888 1878 1873 1866 1868 1882 1874 1872 1877 1861 1876 1889 1903 1901 1902 1897 1906 1912 1924 1919 1932 1940 1945 1950 1944 1946 1938 1933 1928 1930 1923 1915 1910 1913 1908 1909 1911 1914 1922 1918 1935 1934 1936 1939 1947 1956 1960 1963 1964 1962 1961 1966 1967 1971 1976 1979 1978 1977 1975 1974 1973 1970 1972 1969 1968 1965 1958 1951 1937 1942 1949 1955 1943 1920 1916 1860 1858 1869 1863 1875 1852 1857 1862 1859 1879 1885 1890 1898 1893 1883 1856 1844 1838 1835 1831 1827 1824 1833 1842 1839 1840 1832 1828 1822 1820 1818 1811 1809 1810 1807 1812 1805 1801 1800 1799 1788 1794 1795 1798 1793 1791 1792 1790 1782 1772 1777 1776 1770 1767 1764 1759 1758 1752 1751 1750 1749 1748 1746 1744 1743 1742 1741 1739 1732 1730 1729 1728 1726 1724 1721 1717 1718 1722 1716 1714 1713 1711 1709 1706 1705 1704 1703 1702 1700 1695 1691 1690 1683 1686 1676 1677 1675 1673 1672 1668 1681 1680 1685 1701 1682 1671 1667 1647 1638 1639 1640 1632 1641 1628 1653 1656 1659 1665 1662 1664 1669 1663 1661 1658 1657 1655 1654 1650 1648 1649 1635 1644 1642 1633 1631 1630 1629 1627 1624 1623 1621 1620 1610 1608 1605 1602 1607 1606 1600 1601 1598 1593 1592 1591 1587 1584 1585 1583 1581 1582 1580 1575 1571 1569 1564 1560 1558 1554 1553 1552 
