Best cost: 409310
Time: 1046.34
Route:
2994 3025 3040 3071 3070 3123 3124 3155 3224 3203 3202 3186 3201 3241 3271 3301 3319 3340 3508 3397 3398 3446 3486 3647 3664 3682 3736 3758 3771 3826 3841 3825 3856 3817 3855 3875 3922 4018 4004 3981 3938 3928 3910 3824 3835 3840 3874 3927 4003 4017 4035 4034 4057 4022 4016 3980 3951 3937 3950 3966 3979 3921 3978 3920 4031 4002 4045 4055 4032 4046 4033 4047 4015 4056 4102 4103 4118 4140 4183 4219 4182 4249 4227 4226 4181 4162 4139 4128 4129 4117 4094 4086 4078 4077 4093 4101 4111 4110 4161 4207 4279 4351 4382 4352 4280 4299 4360 4331 4341 4320 4300 4269 4231 4184 4208 4195 4163 4228 4196 4087 4084 4070 4036 3983 3982 3939 3952 3929 4005 3940 3953 3954 3984 4019 4048 4079 4130 4104 4141 4156 4171 4185 4220 4229 4209 4281 4342 4321 4258 4282 4310 4283 4322 4301 4284 4285 4343 4250 4232 4233 4221 4197 4186 4142 4164 4165 4095 4082 4025 4008 3995 3994 3986 3957 3944 3924 3945 3958 3968 3988 3987 3996 4009 4020 3997 4010 4011 4037 4049 4071 4083 4088 4143 4150 4166 4172 4187 4198 4210 4235 4234 4251 4259 4270 4324 4323 4371 4383 4425 4466 4488 4493 4500 4531 4560 4530 4487 4459 4443 4413 4419 4431 4486 4480 4514 4587 4569 4568 4565 4559 4552 4542 4513 4499 4512 4430 4511 4541 4540 4586 4614 4615 4653 4677 4703 4746 4873 4816 4847 4961 5088 5150 5208 5223 5235 5248 5244 5239 5230 5169 5141 5151 5054 5020 5021 4987 4950 4902 4864 4827 4788 4773 4747 4776 4734 4801 4829 4802 4789 4790 4748 4704 4696 4662 4672 4712 4661 4588 4607 4631 4632 4616 4575 4566 4553 4451 4481 4494 4501 4515 4543 4591 4590 4589 4622 4654 4683 4729 4803 4810 4849 4850 4929 4919 4874 4888 4904 4903 4840 4828 4822 4848 4951 5055 5041 5109 5123 5177 5193 5224 5259 5275 5314 5291 5305 5240 5209 5152 5142 5131 5080 5056 5013 5057 5058 5124 5102 5103 5059 5014 5022 5060 5015 5023 5090 5091 5110 5143 5161 5089 5125 5153 5194 5198 5231 5245 5249 5264 5288 5300 5301 5310 5328 5322 5329 5332 5333 5311 5302 5236 5210 5216 5241 5250 5276 5292 5303 5306 5330 5334 5356 5360 5361 5377 5381 5366 5371 5382 5404 5423 5433 5432 5418 5403 5402 5414 5442 5413 5397 5375 5355 5348 5343 5354 5359 5380 5365 5370 5353 5374 5379 5395 5398 5431 5399 5409 5416 5400 5401 5417 5436 5447 5448 5461 5454 5449 5455 5462 5450 5475 5497 5496 5495 5517 5573 5588 5598 5597 5643 5656 5589 5574 5575 5560 5561 5555 5562 5576 5577 5612 5613 5644 5666 5628 5620 5629 5606 5580 5579 5578 5538 5526 5518 5483 5498 5502 5519 5510 5532 5539 5550 5540 5541 5520 5556 5563 5581 5590 5599 5614 5607 5582 5569 5583 5646 5621 5630 5645 5657 5686 5685 5727 5744 5810 5824 5793 5834 5845 5760 5783 5782 5759 5806 5852 5844 5807 5808 5809 5833 5862 5871 5861 5860 5859 5891 5935 5934 5955 5946 5920 5921 5890 5889 5908 5888 5945 5966 5944 5887 5886 5885 5880 5905 5906 5907 5954 5965 5992 5991 5964 5974 5981 5986 6022 6013 6009 5980 5963 5973 5942 5917 5903 5918 5870 5850 5849 5830 5831 5820 5780 5747 5789 5804 5757 5746 5741 5699 5710 5721 5722 5714 5673 5681 5723 5715 5716 5742 5758 5772 5724 5682 5683 5700 5725 5743 5790 5821 5842 5878 5904 5943 5933 5919 5879 5857 5822 5791 5781 5773 5774 5823 5832 5851 5881 5858 5843 5805 5775 5776 5792 5748 5736 5712 5711 5703 5702 5726 5717 5701 5655 5639 5654 5684 5665 5638 5605 5627 5642 5637 5641 5619 5611 5604 5568 5554 5549 5531 5537 5516 5501 5492 5482 5481 5480 5469 5468 5479 5474 5487 5494 5530 5559 5567 5572 5587 5571 5603 5610 5626 5618 5609 5596 5636 5635 5653 5652 5664 5634 5633 5594 5595 5566 5548 5536 5529 5525 5547 5508 5509 5503 5478 5471 5467 5453 5460 5430 5452 5465 5466 5473 5524 5535 5528 5515 5565 5593 5651 5698 5697 5709 5734 5735 5771 5779 5756 5788 5803 5818 5819 5829 5869 5817 5802 5816 5841 5787 5786 5848 5856 5876 5951 5932 5914 5877 5901 5961 5962 5952 5915 5916 5884 5902 5941 5953 5972 5985 6004 6021 6054 6027 6020 5997 5990 6003 6019 6033 6038 6071 6086 6077 6053 6037 6026 6018 6017 5996 6008 6012 6032 5995 5971 5984 5939 5928 5912 5940 5960 5913 5929 5950 5930 5931 5868 5899 5900 5875 5840 5828 5801 5778 5770 5740 5769 5768 5767 5766 5815 5733 5650 5680 5663 5649 5662 5625 5632 5601 5557 5545 5506 5488 5489 5490 5514 5552 5558 5602 5585 5546 5592 5586 5553 5507 5500 5491 5486 5464 5472 5459 5444 5441 5435 5428 5429 5422 5407 5412 5408 5389 5358 5304 5270 5287 5299 5342 5341 5357 5364 5369 5376 5384 5385 5394 5421 5427 5426 5425 5420 5411 5388 5373 5338 5327 5309 5352 5372 5410 5439 5463 5458 5438 5396 5351 5347 5363 5387 5406 5493 5505 5446 5393 5298 5263 5214 5197 5190 5140 5160 5121 5122 5130 5079 5068 5012 4997 4960 4975 5011 4996 4918 4846 4839 4826 4815 4787 4772 4733 4838 4872 4887 4939 4959 4928 4974 4995 4973 5010 5030 5040 5120 5159 5139 5138 5137 5168 5167 5176 5175 5182 5189 5222 5233 5203 5166 5174 5173 5148 5118 5106 5119 5136 5127 5128 5129 5149 5108 5101 5067 5053 5039 5038 4986 5037 5052 5078 5107 5100 5036 5051 5117 5105 5050 5029 5035 4985 5009 4958 4938 4857 4845 4844 4837 4808 4807 4781 4782 4798 4799 4758 4719 4702 4710 4692 4669 4670 4657 4636 4612 4627 4621 4626 4635 4642 4651 4691 4709 4727 4726 4718 4708 4701 4690 4675 4725 4717 4680 4634 4605 4596 4595 4583 4563 4604 4603 4611 4650 4602 4582 4581 4562 4580 4649 4689 4668 4674 4707 4731 4744 4769 4757 4825 4886 4901 4900 4917 5008 4949 4821 4780 4814 4885 4899 4884 4916 4915 4972 4994 4927 4883 4856 4797 4751 4688 4556 4483 4436 4399 4377 4327 4348 4376 4347 4312 4241 4173 4090 4012 4039 3925 3917 3804 3734 3658 3641 3657 3465 3528 3504 3640 3721 3707 3733 3838 3853 3973 3897 3798 3741 3705 3706 3614 3483 3464 3390 3281 3282 3355 3266 3235 3217 3166 3050 2913 2786 2686 2576 2345 2284 2048 2029 2109 2030 1864 1839 1732 1722 1746 1777 1761 1721 1671 1687 1670 1652 1686 1798 1720 1685 1611 1584 1539 1509 1520 1531 1478 1457 1436 1394 1324 1312 1282 1273 1318 1333 1327 1328 1365 1368 1415 1402 1437 1445 1479 1489 1490 1480 1446 1447 1403 1404 1438 1463 1492 1491 1521 1525 1493 1510 1526 1540 1612 1640 1628 1585 1550 1527 1494 1481 1458 1426 1405 1425 1372 1347 1358 1369 1348 1283 1261 1352 1360 1359 1395 1376 1396 1416 1439 1464 1495 1532 1541 1613 1641 1600 1568 1569 1511 1465 1377 1274 1329 1353 1378 1387 1406 1440 1448 1427 1449 1417 1370 1361 1330 1319 1308 1307 1284 1275 1242 1190 1165 1131 1079 1061 1080 1003 868 883 934 1002 1112 976 882 905 1060 1025 1108 1102 1037 988 945 933 881 890 861 853 770 754 654 639 717 769 802 824 823 842 834 801 781 760 708 677 676 653 707 740 753 768 780 814 822 841 833 859 860 880 917 944 962 993 975 970 969 987 960 904 852 813 851 850 849 867 832 821 809 787 759 779 786 778 777 785 800 858 857 932 948 958 959 997 992 998 1001 1075 1047 1058 1074 1088 1111 1101 1089 1076 1024 1015 1016 1059 1017 1077 1090 1078 1106 1107 1119 1147 1181 1164 1152 1118 1122 1117 1116 1151 1146 1137 1161 1204 1215 1205 1206 1187 1162 1163 1170 1171 1207 1208 1199 1172 1180 1188 1189 1200 1218 1231 1217 1236 1235 1230 1216 1234 1241 1269 1306 1305 1326 1311 1298 1260 1229 1221 1179 1160 1145 1159 1198 1214 1228 1213 1197 1203 1252 1259 1265 1281 1268 1272 1292 1280 1240 1227 1239 1233 1220 1196 1226 1238 1251 1264 1271 1279 1291 1290 1304 1320 1321 1340 1351 1346 1339 1345 1383 1393 1399 1375 1411 1422 1423 1400 1412 1384 1341 1371 1401 1385 1386 1413 1414 1424 1435 1434 1462 1488 1519 1477 1567 1556 1576 1662 1704 1838 1891 2027 1863 1892 1705 1706 1760 1797 1893 2028 2108 2177 2405 2508 2485 2438 2437 2603 2665 2901 2912 2872 2702 2602 2376 2026 1923 1776 1796 1837 1922 1991 2145 2249 2404 2575 2601 2466 2701 2814 2756 2813 2887 2939 2980 2999 2979 2957 2947 2931 2900 2977 2978 2991 2998 3032 3092 3093 3104 3133 3409 3265 3234 3216 3079 3091 3078 3314 3377 3548 3704 3703 3639 3442 3426 3313 3132 3049 3031 3048 3047 3077 3076 3103 3102 3090 3089 3046 3075 3131 3332 3354 3376 3527 3570 3635 3636 3637 3571 3638 3702 3810 3852 3895 3867 3766 3780 3789 3946 4038 4114 4120 4134 4133 4132 4131 4152 4119 4167 4199 4211 4236 4303 4260 4271 4287 4326 4345 4344 4361 4372 4414 4397 4384 4392 4405 4426 4432 4444 4460 4467 4445 4420 4407 4415 4421 4453 4468 4396 4374 4335 4346 4373 4395 4394 4406 4398 4427 4393 4385 4334 4305 4304 4261 4252 4237 4262 4253 4254 4272 4306 4375 4433 4517 4526 4546 4567 4571 4578 4527 4518 4519 4434 4336 4311 4273 3998 4026 3934 3961 3906 3896 3868 3781 3820 3767 3720 3821 3860 3907 3869 3803 3879 3962 3947 3963 3870 3972 4050 4073 4121 4200 4201 4288 4337 4367 4386 4354 4238 4239 4135 4240 4263 4362 4454 4585 4648 4768 4796 4806 4869 4868 4855 4854 4835 4834 4843 4895 4914 4923 4922 4921 4937 4967 4956 4968 5005 4991 4966 4936 4881 4813 4767 4750 4749 4723 4700 4724 4716 4687 4656 4667 4641 4647 4572 4561 4461 4435 4482 4520 4528 4536 4535 4579 4584 4594 4620 4699 4766 4765 4779 4795 4824 4820 4911 4861 4867 4912 4842 4862 4863 4880 4913 4990 5025 5063 5072 5095 5096 5043 5026 5044 5032 5064 5045 5083 5065 5073 5084 5165 5178 5074 5075 5046 5076 5085 5048 5033 5027 5047 4992 4981 4945 4969 4957 4946 4924 4970 4982 5006 5007 4993 4983 4926 4897 4896 4948 4947 4925 4870 4836 4871 4882 4898 4971 4984 5028 5034 5049 5098 5099 5116 5086 5077 5087 5066 5179 5220 5232 5256 5280 5320 5313 5283 5257 5269 5262 5207 5135 5180 5181 5202 5213 5221 5258 5284 5321 5326 5331 5383 5391 5392 5419 5437 5434 5451 5470 5511 5527 5542 5616 5669 5623 5617 5533 5534 5443 5485 5499 5512 5521 5543 5522 5544 5551 5523 5513 5584 5564 5600 5648 5707 5731 5695 5696 5708 5732 5755 5765 5814 5839 5847 5800 5838 5867 5911 5978 5959 5993 6010 5979 5883 5827 5926 5874 5927 6002 6043 6052 6046 6016 6007 5994 6031 6070 6063 6051 6045 6025 6011 6042 6030 6041 6024 6040 6056 6076 6068 6062 6069 6083 6090 6093 6103 6109 6111 6114 6117 6116 6112 6096 6059 6058 6092 6097 6102 6110 6106 6108 6113 6115 6105 6091 6067 6061 6075 6080 6050 6066 6087 6101 6089 6049 6036 6023 6015 6001 5958 5898 5799 5739 5694 5693 5692 5661 5679 5691 5678 5624 5640 5660 5672 5671 5706 5690 5659 5647 5670 5677 5713 5719 5751 5777 5763 5738 5729 5689 5705 5688 5737 5762 5785 5795 5761 5745 5750 5728 5676 5794 5825 5836 5812 5837 5854 5865 5866 5873 5855 5796 5826 5813 5764 5752 5753 5720 5754 5730 5798 5797 5897 5977 5983 5989 6044 6048 6085 6100 6095 6065 6098 6099 6104 6107 6094 6088 6084 6082 6081 6079 6078 6074 6073 6072 6064 6060 6057 6055 6047 6039 6034 6028 6035 6029 6006 5987 5937 5924 5938 5948 5969 5999 6014 6000 5988 5970 5949 5925 5896 5864 5895 5894 5882 5872 5910 5947 5957 5956 5968 6005 5998 5982 5976 5975 5967 5936 5909 5892 5922 5923 5893 5863 5853 5846 5835 5811 5784 5749 5718 5704 5687 5675 5674 5667 5658 5622 5631 5668 5591 5608 5615 5570 5477 5457 5415 5456 5476 5504 5484 5445 5440 5424 5386 5390 5405 5368 5308 5346 5312 5282 5281 5297 5340 5325 5319 5318 5337 5345 5350 5378 5367 5362 5349 5344 5336 5324 5317 5296 5268 5255 5219 5218 5188 5164 5147 5134 5115 5097 5126 5146 5145 5133 5114 5163 5212 5215 5228 5229 5238 5242 5243 5247 5253 5272 5278 5273 5234 5254 5274 5279 5295 5307 5286 5290 5285 5267 5252 5261 5271 5260 5289 5316 5323 5335 5339 5294 5315 5293 5277 5227 5266 5265 5237 5217 5226 5225 5205 5200 5201 5183 5156 5191 5199 5204 5155 5154 5104 5069 5081 5092 4998 4940 4941 4858 4832 4818 4817 4792 4791 4754 4737 4738 4720 4697 4645 4639 4619 4600 4592 4576 4593 4609 4623 4646 4664 4679 4721 4739 4761 4852 4859 4875 4920 4942 4988 4999 5024 5042 5016 4962 4943 4891 4876 4953 4866 4877 4906 4892 4907 4931 4963 5031 5070 5017 4932 4908 4989 5018 4976 4977 5061 5094 5093 5170 5184 5185 5211 5186 5172 5171 5144 5111 5071 5062 5082 5112 5162 5157 5192 5251 5246 5206 5195 5196 5187 5158 5132 5113 5019 5002 5003 5004 4980 4979 4965 4964 4955 4935 4944 4954 4934 4933 4910 4894 4879 4878 4893 5001 5000 4978 4909 4860 4853 4833 4819 4794 4764 4698 4730 4775 4763 4778 4805 4841 4793 4774 4640 4610 4666 4706 4715 4743 4742 4741 4756 4762 4812 4777 4740 4686 4755 4722 4705 4685 4665 4633 4625 4624 4601 4577 4545 4525 4544 4524 4505 4475 4446 4490 4489 4504 4555 4548 4534 4516 4533 4523 4522 4503 4532 4617 4663 4673 4618 4655 4678 4714 4736 4760 4804 4830 4831 4851 4865 4930 4952 4890 4905 4889 4823 4811 4735 4713 4684 4644 4608 4570 4554 4547 4502 4452 4404 4366 4332 4325 4333 4353 4302 4286 4151 4144 4113 4096 4089 4072 4061 3971 3970 3960 3969 3959 3905 3904 3894 3878 3859 3802 3740 3655 3654 3589 3588 3523 3424 3569 3631 3630 3587 3586 3629 3701 3752 3765 3764 3731 3751 3779 3778 3687 3610 3568 3501 3389 3408 3423 3546 3545 3585 3522 3521 3441 3280 3248 3233 3214 3009 3060 3087 3215 3115 3264 3311 3312 3352 3330 3331 3459 3502 3425 3524 3460 3461 3462 3503 3525 3547 3611 3632 3673 3672 3689 3688 3719 3732 3787 3796 3808 3832 3845 3850 3851 3809 3788 3797 3690 3634 3613 3590 3656 3633 3612 3526 3463 3375 3353 3249 3180 3088 3116 3030 2976 3019 3010 2997 2975 2968 2919 2860 2859 2783 2699 2645 2572 2432 2339 2371 2433 2506 2434 2277 1969 1701 1697 1595 1597 1608 1651 1684 1698 1683 1682 1581 1549 1548 1553 1554 1598 1563 1536 1503 1505 1507 1546 1529 1535 1543 1636 1661 1623 1596 1626 1637 1717 1772 1833 1859 1919 1916 1948 1884 1862 1920 1947 2016 2045 2070 2071 2137 2104 2276 2431 2462 2537 2624 2505 2461 2402 2370 2309 2247 2197 2138 2017 2019 1972 1970 1987 1917 1946 1918 1886 1915 1861 1816 1793 1745 1700 1718 1817 1818 1794 1795 1885 1971 1988 2018 2020 2102 2015 1973 1888 1883 1860 1716 1668 1625 1638 1650 1669 1624 1582 1573 1566 1547 1571 1572 1565 1564 1537 1523 1530 1516 1474 1504 1517 1501 1473 1470 1469 1409 1391 1398 1392 1367 1343 1344 1335 1349 1364 1366 1381 1410 1442 1459 1486 1506 1502 1485 1545 1454 1389 1374 1325 1262 1255 1294 1248 1184 1158 1133 1123 1168 1202 1173 1174 1157 1175 1201 1224 1256 1249 1225 1247 1257 1266 1315 1323 1356 1357 1390 1432 1443 1453 1538 1544 1696 1815 1773 1757 1699 1834 1887 2105 2141 2140 2139 2278 2248 2340 2663 2538 2372 2310 2484 2539 2311 2221 2142 2143 2106 1989 1835 1889 1758 1719 1730 1702 1731 1759 1583 1627 1703 1774 2021 2281 2341 2280 2279 2072 2103 2312 2507 2700 2899 2861 2735 2720 2664 2784 2755 2785 2599 2540 2600 2541 2573 2646 2574 2403 2375 2374 2464 2373 2463 2342 2198 2022 2107 2046 2023 1974 2024 2047 1921 1890 1949 1990 2144 2282 2343 2435 2436 2542 2625 2465 2344 2283 2199 2073 2025 1950 1975 1976 1836 1775 1610 1575 1639 1599 1555 1524 1508 1456 1444 1433 1471 1476 1487 1475 1461 1455 1460 1421 1574 1609 1518 1420 1382 1350 1336 1332 1276 1288 1299 1295 1250 1185 1186 1195 1178 1267 1277 1300 1337 1338 1316 1310 1301 1289 1296 1302 1303 1278 1317 1297 1263 1258 1237 1150 1169 1141 1136 1129 1125 1114 1104 1073 1046 1121 1130 1140 1126 1142 1143 1144 1105 1087 1014 968 943 903 866 848 865 928 974 996 995 967 942 931 927 901 926 900 877 876 915 916 930 941 957 973 986 985 972 940 925 913 914 899 875 874 889 888 939 947 984 994 1000 1036 1057 1045 1023 1022 1100 1099 1072 1056 1055 1013 983 966 956 955 946 924 912 887 873 830 829 775 704 723 697 671 724 634 610 595 609 584 569 542 583 608 686 685 767 736 737 784 806 828 864 923 856 855 838 837 820 812 805 758 735 751 794 811 910 911 937 885 886 898 938 965 971 1012 1098 1110 1097 1086 1085 1177 1176 1135 1124 1113 1071 1011 982 929 896 897 827 793 774 765 766 750 734 703 668 656 646 749 757 756 748 733 747 755 772 790 731 722 714 718 696 700 691 694 681 666 664 663 633 593 645 702 711 721 761 764 789 804 819 818 835 836 863 862 893 920 950 952 953 936 921 922 907 908 919 872 894 909 895 949 954 961 964 981 980 1034 1134 1070 1021 1035 1096 1120 1054 951 884 846 871 854 845 844 826 817 816 803 810 825 788 782 783 762 732 730 692 690 729 745 719 701 680 604 602 621 603 628 642 679 695 665 641 630 620 605 592 581 580 559 476 470 467 456 534 549 550 558 560 561 562 622 623 629 624 667 710 712 743 744 763 791 792 773 746 720 709 713 693 678 655 643 644 631 632 579 536 531 535 530 513 484 472 462 441 440 449 468 471 413 361 341 327 326 318 314 313 301 303 302 298 319 362 348 333 300 291 288 276 287 285 273 274 256 257 263 275 289 266 264 290 299 292 258 286 277 265 254 241 242 237 222 232 231 204 203 205 179 165 145 146 135 130 129 114 128 106 101 91 100 85 84 82 74 68 67 57 58 72 83 81 90 60 33 18 23 27 52 47 48 32 26 13 8 5 9 12 17 10 16 19 28 20 1 6 29 31 42 45 46 66 73 98 93 75 59 69 61 92 99 89 112 113 115 124 147 159 154 136 144 155 156 164 160 166 173 175 189 180 178 177 174 171 172 181 191 217 211 212 220 219 221 230 236 245 229 207 218 213 206 197 194 190 192 196 195 188 167 148 86 76 43 87 77 53 49 62 40 39 34 14 2 11 3 4 7 22 15 21 24 35 54 55 70 56 63 36 37 41 50 71 64 78 109 108 107 102 95 94 131 138 139 150 149 157 162 169 208 238 248 279 294 305 293 267 247 234 224 198 161 126 125 117 116 137 168 214 223 233 246 278 304 363 334 315 308 328 335 355 354 370 376 403 405 473 475 483 477 469 450 448 428 434 414 463 489 501 502 537 551 563 567 566 594 606 625 657 658 682 683 669 670 659 647 660 684 568 607 582 541 520 510 485 492 503 511 543 552 553 585 586 587 570 626 648 687 738 795 831 839 847 878 902 879 840 807 796 725 726 672 661 649 635 650 611 588 571 554 544 538 521 514 522 515 545 564 613 612 662 673 688 698 705 715 727 776 797 808 798 799 752 739 728 716 699 614 636 615 589 596 637 651 652 674 689 706 675 627 600 638 599 598 590 616 597 572 565 555 546 556 573 574 557 523 516 524 512 525 517 539 532 533 527 518 526 504 493 494 495 496 505 506 507 508 547 548 575 617 591 576 540 519 480 509 498 497 490 486 479 474 433 420 432 446 454 465 453 460 445 459 458 464 439 419 412 411 425 457 452 444 436 443 451 442 435 431 423 422 430 396 391 390 386 389 407 417 416 429 415 406 395 377 385 378 379 374 373 356 349 342 329 330 320 336 343 350 357 387 404 397 388 392 408 409 424 437 438 418 410 393 371 364 358 337 321 344 365 359 338 322 323 316 317 309 306 297 280 296 295 269 268 259 255 260 270 261 262 249 239 225 215 209 199 182 183 184 185 186 170 118 110 119 151 152 96 30 25 79 120 127 140 163 158 153 132 104 103 80 51 38 44 65 97 111 121 133 134 122 123 88 105 143 142 141 176 187 202 210 228 244 243 272 235 253 252 312 325 332 324 307 311 282 283 284 251 240 227 193 201 200 216 226 250 271 281 310 331 339 351 360 380 381 398 399 375 367 366 352 345 346 353 368 372 400 382 401 402 340 347 383 426 447 487 481 488 500 482 640 601 577 528 427 394 369 384 421 455 461 491 466 478 499 578 618 741 529 619 742 869 891 963 1004 1026 977 978 918 870 771 815 843 892 906 935 991 1033 1032 1103 1109 1069 1031 1010 1009 1008 1020 1030 1044 1043 1042 1068 1053 1041 1052 1067 1040 1019 1029 1028 1007 979 990 1006 1018 999 989 1005 1027 1065 1039 1051 1066 1084 1115 1132 1154 1149 1156 1192 1222 1193 1182 1219 1210 1211 1167 1155 1183 1194 1212 1223 1232 1254 1246 1245 1253 1309 1354 1314 1322 1342 1355 1379 1380 1431 1441 1472 1483 1513 1514 1484 1467 1408 1373 1363 1397 1452 1468 1515 1561 1560 1559 1577 1615 1673 1643 1614 1522 1500 1499 1419 1430 1552 1362 1407 1482 1672 1897 1451 1286 1244 1287 1191 1153 1139 1128 1138 1127 1095 1094 1064 1083 1093 1092 1091 1081 1082 1063 1062 1050 1049 1048 1038 1148 1166 1209 1243 1270 1285 1293 1313 1331 1334 1388 1418 1428 1429 1450 1498 1497 1496 1466 1512 1533 1528 1557 1586 1663 1780 1895 1734 1707 1733 1779 1866 1778 1799 1865 1840 1894 1951 1992 2074 2178 2285 2439 2703 2940 2981 3020 3033 3051 3134 3218 3315 3316 3250 3147 3117 3052 3011 2992 2982 3053 3094 3034 3012 3061 3062 3039 2948 2941 2914 2816 2787 2737 2738 2788 2920 2958 3000 3013 3035 3064 3080 3063 3054 3136 3182 3252 3284 3253 3297 3298 3379 3411 3467 3595 3643 3709 3676 3594 3675 3723 3743 3768 3805 3871 3935 3918 3890 3819 3812 3790 3754 3691 3615 3593 3551 3573 3574 3552 3466 3392 3410 3336 3267 3195 3181 3168 3118 3251 3167 3149 3148 3135 3220 3219 3283 3335 3427 3572 3592 3642 3659 3722 3742 3674 3591 3550 3549 3529 3391 3378 3357 3334 3333 3356 3505 3735 3708 3753 3811 3839 3822 3833 3898 3889 3989 3999 4040 4106 4122 4174 4188 4212 4289 4328 4368 4387 4416 4437 4469 4476 4491 4506 4507 4495 4484 4496 4508 4455 4408 4388 4364 4363 4213 4189 4115 4062 4051 4074 4097 4098 4075 4041 4063 4064 4052 4027 4042 4065 3990 4013 4066 4136 4157 4178 4146 4099 4145 4153 4177 4168 4203 4215 4222 4256 4264 4242 4191 4190 4176 4175 4202 4214 4290 4307 4329 4255 4291 4292 4308 4313 4338 4355 4356 4379 4389 4369 4378 4456 4438 4422 4470 4529 4537 4538 4509 4492 4439 4447 4477 4478 4471 4462 4472 4457 4448 4417 4409 4400 4423 4440 4441 4449 4428 4442 4390 4358 4350 4339 4330 4318 4278 4340 4359 4391 4429 4401 4402 4381 4411 4410 4424 4450 4458 4464 4463 4473 4479 4539 4550 4521 4549 4564 4558 4557 4573 4597 4606 4629 4628 4637 4652 4658 4659 4671 4681 4752 4753 4771 4770 4783 4784 4800 4809 4785 4786 4759 4745 4711 4693 4694 4732 4728 4643 4638 4660 4695 4682 4676 4630 4613 4598 4599 4574 4551 4497 4510 4485 4474 4498 4465 4418 4412 4403 4319 4248 4247 4170 4138 4069 4030 3993 3936 3949 3992 3977 4021 4068 4109 4169 4268 4246 4218 4160 4155 4180 4206 4230 4267 4277 4298 4297 4266 4276 4296 4317 4357 4309 4295 4257 4244 4245 4194 4179 4154 4158 4159 4148 4116 4127 4149 4108 4092 4100 4044 3976 3965 3891 3881 3873 3861 3815 3793 3769 3799 3814 3846 3854 3901 3880 3872 3900 3909 3948 3974 3919 3975 3926 3991 4001 4043 4054 4076 4053 4029 4014 4028 4067 4085 4107 4126 4125 4147 4137 4193 4205 4204 4225 4217 4224 4243 4265 4275 4294 4316 4349 4365 4370 4380 4314 4315 4293 4274 4223 4216 4192 4123 4124 4091 4000 3964 3899 3908 3823 3791 3744 3692 3755 3660 3506 3484 3553 3468 3575 3677 3756 3792 3813 3724 3644 3554 3616 3596 3530 3428 3429 3338 3337 3299 3236 3170 3183 3199 3152 3106 3095 3066 3119 3151 3197 3198 3269 3268 3196 3221 3169 3150 3105 3065 3021 2983 2915 2921 2888 2863 2789 2626 2511 2581 2580 2579 2666 2647 2487 2469 2486 2468 2377 2347 2250 2346 2407 2441 2440 2467 2577 2510 2543 2578 2736 2862 2758 2815 2757 2704 2509 2406 2313 2222 2110 2075 1993 1924 1925 2111 2146 2112 2049 1952 1800 1994 2050 2223 2582 2705 2839 2889 2969 2993 3001 2984 2932 2985 2949 2739 2687 2583 2378 2251 2179 2076 2113 2051 1996 1995 1926 1867 1762 1723 1653 1642 1601 1551 1558 1602 1688 1724 1747 1801 1819 1841 1781 1842 1896 1927 2077 2180 2147 2224 2348 2225 2200 2201 2442 2470 2488 2667 2604 2668 2688 2902 2970 3014 3067 3153 3184 3237 3318 3317 3430 3469 3531 3507 3485 3576 3555 3645 3693 3710 3661 3694 3678 3711 3679 3680 3597 3617 3618 3380 3238 3154 3222 3358 3393 3443 3598 3646 3662 3712 3770 3782 3847 3882 3834 3816 3745 3713 3663 3681 3757 3620 3600 3533 3470 3445 3395 3396 3381 3339 3300 3240 3287 3239 3171 3138 3122 3097 3096 3137 3121 3107 3069 3120 3185 3200 3359 3360 3394 3413 3444 3532 3556 3619 3599 3412 3270 3286 3285 3223 3081 3022 3068 3023 2986 3015 3016 3024 3002 3003 2987 2961 2951 2923 2922 2960 2959 2971 2950 2916 2873 2840 2740 2627 2759 2760 2841 2903 2890 2761 2790 2842 2874 2843 2817 2891 2904 2905 2906 2892 2875 2864 2844 2845 2818 2819 2791 2764 2741 2763 2762 2721 2669 2605 2584 2544 2489 2471 2286 2226 2148 2082 2081 2080 2079 2078 2052 1997 1977 2114 1898 1782 1735 1725 1689 1629 1654 1674 1690 1736 1763 1764 1802 1803 1783 1784 1804 1843 1844 1868 1845 1869 1899 1928 1998 1999 2031 1953 1978 2000 1929 1901 1900 1870 1848 1847 1846 1820 1765 1805 1824 1852 1875 1876 1877 1853 1806 1785 1766 1749 1739 1727 1711 1693 1679 1658 1635 1619 1606 1605 1648 1647 1657 1656 1692 1691 1666 1655 1665 1678 1710 1709 1738 1737 1748 1726 1708 1675 1676 1677 1664 1644 1630 1616 1617 1603 1588 1587 1562 1542 1570 1589 1604 1631 1645 1632 1633 1646 1634 1618 1590 1578 1591 1592 1593 1534 1579 1620 1649 1667 1681 1695 1694 1659 1680 1713 1712 1750 1751 1740 1741 1752 1767 1786 1768 1787 1807 1854 1906 1936 1956 1957 1985 1984 1955 1954 1982 1983 2005 2006 2035 2036 2056 2055 2054 2034 2033 2004 2053 2083 2117 2154 2155 2118 2156 2206 2231 2255 2256 2257 2319 2318 2352 2351 2382 2445 2472 2490 2444 2380 2349 2381 2409 2410 2350 2317 2289 2316 2288 2253 2205 2228 2229 2290 2254 2230 2182 2153 2152 2151 2150 2116 2032 2001 1980 1931 1932 1933 1934 1981 2002 2003 1935 1905 1874 1851 1823 1822 1821 1850 1873 1904 1872 1849 1871 1902 1903 1930 1979 2115 2149 2181 2203 2204 2252 2287 2227 2202 2314 2315 2379 2408 2443 2545 2606 2648 2670 2690 2722 2709 2708 2707 2689 2706 2793 2792 2846 2893 2917 2926 2937 2907 2865 2820 2765 2766 2767 2821 2866 2876 2894 2895 2877 2794 2878 2879 2822 2671 2691 2672 2673 2512 2473 2491 2513 2546 2514 2515 2446 2447 2413 2323 2293 2260 2259 2085 2157 2208 2209 2158 2120 2058 2037 1961 1962 1910 1909 1827 1857 1856 1826 1825 1855 1879 1941 1960 1940 1986 2057 2084 2183 2292 2321 2322 2386 2385 2412 2411 2384 2383 2354 2320 2353 2291 2258 2207 2232 2119 2007 1959 1908 1939 1958 1938 1937 1907 1878 1753 1788 1808 1789 1660 1594 1580 1607 1621 1622 1714 1728 1742 1769 1790 1810 1809 1828 1880 1829 1830 1811 1791 1812 1831 1813 1770 1754 1755 1756 1743 1744 1715 1729 1771 1792 1814 1832 1858 1912 1943 1942 1911 1963 1964 2012 2011 2010 2039 2038 2009 2008 2060 2059 2086 2087 2088 2089 2121 2122 2159 2123 2160 2184 2210 2236 2237 2264 2263 2295 2265 2211 2185 2161 2162 2186 2163 2126 2093 2063 2125 2092 2124 2090 2061 2091 2062 2040 1965 1966 1967 1945 1944 1913 1881 1882 1914 1968 2127 2164 2187 2165 2128 2095 2094 2064 2041 2013 2042 2043 2014 2044 2067 2068 2098 2099 2069 2100 2133 2134 2135 2136 2101 2176 2308 2369 2368 2367 2337 2338 2307 2275 2246 2220 2196 2175 2174 2173 2195 2194 2172 2171 2193 2217 2218 2219 2245 2244 2216 2192 2170 2132 2131 2097 2066 2065 2096 2129 2166 2188 2189 2213 2212 2239 2238 2268 2267 2299 2330 2393 2419 2420 2421 2498 2563 2615 2636 2637 2656 2657 2658 2659 2683 2684 2661 2660 2641 2640 2639 2638 2616 2617 2618 2619 2620 2621 2642 2622 2597 2596 2569 2534 2533 2532 2531 2530 2566 2567 2568 2595 2594 2593 2592 2565 2564 2529 2528 2477 2453 2454 2425 2424 2423 2452 2422 2394 2395 2396 2397 2398 2365 2335 2304 2273 2303 2334 2364 2363 2362 2361 2331 2332 2333 2302 2301 2271 2270 2300 2269 2240 2214 2190 2167 2168 2130 2169 2191 2215 2241 2272 2242 2243 2274 2306 2305 2336 2366 2400 2401 2430 2429 2458 2457 2427 2428 2399 2426 2455 2456 2480 2479 2478 2499 2500 2501 2502 2481 2482 2459 2460 2483 2504 2536 2503 2535 2570 2571 2598 2623 2644 2643 2662 2685 2698 2697 2719 2718 2717 2696 2682 2681 2680 2655 2679 2693 2694 2728 2747 2727 2714 2713 2726 2746 2745 2772 2773 2774 2775 2748 2776 2806 2805 2830 2804 2829 2851 2870 2885 2852 2831 2853 2832 2807 2808 2809 2778 2777 2749 2729 2715 2695 2716 2730 2750 2751 2731 2732 2733 2734 2754 2753 2782 2781 2752 2780 2779 2810 2811 2812 2838 2837 2858 2857 2856 2836 2835 2834 2833 2854 2855 2871 2886 3458 3457 3456 3440 3455 3482 3500 3519 3520 3567 3584 3609 3653 3671 3686 3700 3730 3739 3750 3763 3762 3776 3777 3786 3785 3775 3760 3748 3761 3749 3738 3718 3685 3608 3628 3652 3670 3698 3699 3717 3729 3716 3697 3715 3684 3669 3627 3607 3566 3544 3543 3565 3564 3606 3626 3651 3668 3667 3650 3625 3624 3623 3605 3563 3542 3541 3583 3604 3622 3648 3649 3666 3665 3602 3603 3581 3580 3559 3560 3582 3561 3562 3540 3515 3516 3496 3495 3494 3477 3493 3492 3514 3539 3538 3537 3558 3579 3557 3535 3536 3511 3510 3489 3472 3473 3490 3512 3513 3491 3474 3475 3476 3451 3452 3453 3478 3454 3479 3497 3517 3480 3498 3518 3499 3481 3439 3422 3406 3405 3387 3388 3373 3374 3407 3351 3350 3329 3310 3296 3279 3263 3278 3295 3309 3308 3327 3328 3349 3372 3371 3370 3348 3326 3325 3346 3368 3347 3369 3386 3404 3420 3421 3438 3419 3437 3436 3435 3417 3418 3403 3402 3385 3367 3345 3344 3366 3384 3401 3416 3434 3450 3449 3448 3447 3433 3415 3399 3382 3400 3383 3365 3364 3342 3321 3320 3303 3322 3343 3323 3324 3306 3307 3294 3277 3262 3276 3293 3292 3291 3305 3304 3290 3289 3288 3273 3257 3256 3255 3242 3226 3243 3258 3259 3274 3275 3260 3261 3247 3232 3213 3212 3193 3194 3179 3165 3164 3146 3130 3129 3128 3113 3114 3101 3086 3059 3074 3058 3045 3038 3044 3084 3110 3125 3142 3160 3174 3189 3190 3191 3177 3162 3176 3175 3161 3143 3126 3111 3099 3085 3100 3112 3127 3144 3145 3163 3178 3192 3211 3231 3210 3230 3246 3229 3245 3244 3228 3227 3209 3208 3188 3173 3187 3207 3206 3083 3057 2990 2967 2956 2930 2938 2918 2911 2898 2882 2897 2826 2797 2798 2769 2692 2710 2675 2711 2725 2724 2743 2744 2770 2742 2799 2827 2828 2849 2867 2883 2884 2869 2868 2850 2800 2801 2802 2803 2771 2712 2676 2677 2653 2678 2654 2635 2614 2591 2590 2559 2560 2524 2523 2589 2558 2494 2495 2496 2525 2526 2561 2562 2527 2497 2476 2451 2417 2418 2391 2392 2360 2329 2328 2327 2298 2266 2297 2296 2326 2325 2359 2390 2389 2358 2388 2450 2416 2294 2261 2262 2235 2234 2233 2324 2357 2415 2387 2356 2355 2414 2448 2474 2493 2519 2551 2552 2520 2553 2521 2554 2555 2522 2475 2449 2557 2556 2613 2652 2634 2611 2612 2588 2587 2610 2633 2674 2651 2632 2586 2550 2492 2518 2517 2516 2548 2549 2585 2609 2631 2630 2629 2547 2608 2607 2628 2649 2650 2723 2796 2825 2848 2881 2824 2768 2795 2823 2847 2880 2910 2929 2966 3018 3008 3007 2974 2946 2955 2965 2928 2896 2909 2908 2927 2964 2954 2989 3042 3055 3043 3056 3082 3098 3037 3028 3006 3029 3073 3108 3225 3254 3272 3158 3159 3141 3109 3172 3205 3341 3488 3509 3578 3601 3683 3696 3727 3737 3726 3772 3773 3747 3728 3759 3774 3801 3795 3807 3830 3806 3784 3783 3800 3818 3829 3843 3857 3864 3887 3930 3913 3942 3923 3903 3914 3893 3876 3831 3844 3865 3849 3837 3858 3866 3877 3888 3916 3915 3933 3932 3931 3943 3956 3967 4007 4024 4060 4081 4059 4023 4058 4105 4112 4080 4006 3955 3985 3941 3912 3886 3892 3911 3902 3885 3884 3883 3862 3863 3848 3828 3827 3842 3836 3794 3746 3695 3725 3714 3621 3577 3487 3471 3363 3362 3432 3414 3534 3431 3361 3204 3157 3140 3156 3302 3139 3072 3041 3027 3036 3026 3017 3004 3005 2996 2973 2963 2945 2936 2925 2924 2935 2944 2943 2953 2952 2988 2995 2972 2942 2934 2933 2962 
