Best cost: 95635
Time: 95.6302
Route:
851 841 829 825 830 820 822 823 780 746 598 534 521 520 508 550 589 627 576 622 650 632 626 549 484 426 373 350 375 365 370 335 324 291 301 302 277 263 268 258 256 253 247 248 243 240 241 239 242 246 250 249 244 267 287 290 279 295 311 317 321 303 300 299 289 262 252 230 99 96 87 83 74 69 51 53 54 56 55 61 64 70 75 67 71 92 101 104 115 120 124 114 130 117 129 139 108 122 112 113 107 151 171 192 220 232 221 219 213 198 210 196 211 224 233 225 231 227 236 229 235 226 234 228 223 215 200 188 186 194 191 187 180 177 174 160 155 147 134 146 157 173 182 185 193 207 209 212 222 218 216 206 203 195 197 208 190 202 217 214 199 189 184 165 167 169 172 178 176 170 168 164 161 163 158 156 141 152 145 149 142 138 140 137 135 136 143 150 159 153 126 128 123 116 111 118 119 127 125 121 105 109 106 110 131 144 148 162 166 175 183 181 204 238 154 205 259 264 280 296 312 320 318 329 313 281 278 276 292 322 323 336 337 359 384 366 355 363 360 348 339 333 331 308 309 288 179 80 77 72 65 35 16 50 58 57 48 43 76 95 91 98 102 62 59 34 36 29 20 30 31 14 18 11 3 4 5 10 21 15 13 28 38 39 45 47 37 33 19 27 52 79 68 66 73 60 89 97 103 133 132 257 273 274 294 307 298 282 272 266 265 261 270 271 286 305 304 310 316 326 330 315 319 361 398 364 338 332 341 345 340 343 342 367 368 371 374 380 433 450 451 494 501 465 563 574 588 597 628 629 646 724 766 788 784 804 803 813 815 814 812 819 833 828 842 846 860 848 847 852 865 866 873 884 879 878 874 872 882 871 862 858 855 836 835 827 831 805 707 717 709 720 701 693 691 708 705 722 733 742 737 764 762 773 782 756 752 747 734 736 740 751 750 765 770 781 774 779 790 801 800 802 799 792 785 776 786 783 772 761 768 763 757 749 753 759 771 777 769 775 787 798 810 809 807 806 816 808 791 793 789 767 743 748 754 758 741 703 684 659 643 669 678 671 667 675 658 657 660 670 674 677 682 681 679 668 656 645 640 644 651 654 666 661 653 652 655 672 690 689 697 702 712 700 694 695 685 698 714 716 729 738 735 725 719 732 728 713 699 704 711 721 710 718 731 739 723 715 706 696 692 683 676 665 680 673 642 641 611 529 610 596 591 587 581 573 580 586 578 590 599 608 604 609 616 621 620 612 607 603 595 594 585 577 572 557 548 569 570 558 542 541 527 528 533 519 507 500 499 506 493 481 472 464 456 449 463 455 442 430 431 432 424 423 417 409 410 411 420 400 396 388 390 389 387 383 379 377 376 353 334 283 269 251 254 260 284 293 314 275 285 201 100 63 40 44 32 25 24 23 26 17 12 7 9 1 6 2 8 22 41 42 46 49 78 90 81 82 86 85 84 88 94 93 237 255 297 306 245 325 327 328 344 347 346 349 358 356 378 382 386 385 392 393 394 395 397 399 406 405 404 415 416 422 421 408 403 414 402 401 407 418 419 428 429 436 441 460 461 471 462 492 505 504 480 491 490 459 454 448 470 469 458 447 453 457 476 477 486 512 524 525 536 539 545 538 544 535 522 516 523 510 511 497 496 485 475 468 474 467 452 445 446 435 427 440 434 444 439 509 551 560 564 565 566 552 546 540 531 517 513 503 487 514 488 478 479 489 498 518 526 537 532 547 556 568 567 562 555 561 554 553 582 600 583 584 602 606 601 605 615 625 624 623 619 618 726 794 811 662 744 686 663 727 636 634 635 664 687 778 795 844 854 864 885 888 898 891 894 899 904 905 907 912 910 911 913 916 918 917 900 895 908 914 919 921 923 928 926 925 922 924 927 929 920 915 909 903 896 897 901 906 902 890 893 892 889 870 867 840 647 631 637 688 821 849 853 876 869 859 845 824 818 839 730 796 630 592 593 575 571 614 633 617 559 515 473 483 482 502 443 437 412 391 381 372 369 351 352 354 362 357 438 425 413 466 495 530 543 579 613 638 648 649 755 817 745 639 760 797 826 834 856 850 857 875 886 881 880 887 883 877 863 843 838 837 832 861 868 
