Best cost: 400830
Time: 6903.73
Route:
5595 5566 5548 5536 5529 5547 5525 5503 5509 5508 5515 5528 5535 5524 5553 5586 5592 5546 5585 5602 5558 5552 5514 5490 5489 5488 5506 5545 5557 5601 5632 5625 5662 5649 5663 5680 5650 5733 5815 5766 5767 5768 5740 5770 5769 5778 5801 5828 5840 5875 5848 5856 5876 5932 5914 5877 5869 5901 5961 5962 5952 5915 5916 5884 5902 5917 5942 5941 5953 5972 5985 6004 6021 6054 6071 6086 6077 6053 6038 6033 6019 6003 5990 6027 6020 5997 5951 5900 5899 5931 5950 5930 5868 5929 5913 5960 5996 6018 6026 6037 6017 6008 6012 6032 5995 5971 5940 5912 5928 5939 5984 6002 6043 6052 6046 6031 6016 6007 5994 5926 5927 5874 5827 5883 5979 6011 6025 6045 6070 6063 6051 6042 6030 6041 6069 6083 6093 6111 6114 6117 6116 6112 6109 6103 6090 6076 6068 6062 6056 6040 6024 6010 5993 5959 5978 5911 5867 5838 5847 5839 5814 5765 5755 5800 5732 5708 5696 5695 5731 5707 5739 5692 5693 5694 5648 5600 5564 5584 5551 5513 5523 5544 5522 5543 5521 5512 5499 5485 5443 5534 5533 5470 5451 5434 5419 5437 5511 5527 5542 5616 5669 5623 5617 5688 5705 5689 5713 5719 5751 5777 5796 5763 5738 5729 5737 5762 5785 5795 5761 5745 5750 5837 5854 5865 5866 5873 5855 5826 5813 5764 5752 5753 5720 5677 5670 5647 5659 5690 5706 5671 5672 5660 5640 5624 5661 5679 5678 5691 5730 5754 5797 5798 5799 5898 5958 6001 6015 6049 6050 6066 6087 6080 6075 6061 6067 6091 6058 6059 6092 6097 6096 6102 6110 6106 6108 6113 6105 6115 6101 6089 6036 6023 5897 5977 5983 5989 6044 6048 6085 6100 6095 6107 6104 6099 6098 6094 6088 6084 6082 6081 6079 6078 6074 6073 6072 6064 6060 6057 6055 6047 6039 6034 6028 6005 5998 5982 5976 5975 5967 5936 5909 5892 5922 5923 5956 5968 5947 5957 5987 5999 6006 6035 6029 6014 6065 6000 5988 5970 5949 5969 5938 5948 5937 5924 5882 5894 5895 5925 5896 5864 5836 5812 5728 5825 5794 5872 5910 5893 5863 5853 5846 5835 5811 5784 5749 5718 5704 5687 5675 5674 5667 5658 5631 5622 5591 5608 5668 5676 5615 5570 5477 5457 5456 5476 5504 5484 5445 5440 5424 5386 5346 5308 5368 5390 5405 5415 5383 5391 5392 5331 5326 5321 5284 5258 5221 5213 5202 5181 5180 5135 5207 5262 5269 5257 5283 5313 5320 5280 5256 5232 5220 5179 5087 5066 4972 4915 4916 4884 4899 4885 4814 4780 4821 4949 5008 4917 4900 4901 4886 4825 4757 4769 4744 4731 4707 4689 4674 4668 4688 4751 4797 4856 4883 4927 4994 5077 5086 5116 5099 5098 5049 5034 5028 4984 4983 4948 4925 4896 4897 4926 4971 4898 4882 4871 4836 4870 4924 4947 4993 5007 5006 4982 4970 4946 4957 4969 4992 4981 4945 4895 4914 4923 4922 4921 4937 4956 4968 5005 4991 4967 4966 4936 4881 4843 4834 4835 4854 4855 4868 4869 4806 4796 4768 4648 4585 4454 4362 4354 4238 4239 4135 4263 4240 4312 4241 4347 4376 4348 4327 4377 4399 4436 4483 4556 4491 4476 4469 4437 4416 4387 4363 4364 4388 4408 4455 4484 4506 4507 4495 4496 4508 4562 4580 4649 4581 4582 4602 4650 4611 4634 4603 4604 4595 4605 4596 4583 4563 4538 4537 4529 4456 4438 4422 4470 4509 4492 4557 4573 4597 4606 4564 4558 4549 4550 4539 4521 4457 4448 4472 4462 4471 4478 4477 4447 4439 4380 4370 4314 4315 4365 4349 4316 4293 4294 4274 4275 4265 4243 4192 4223 4216 4136 4146 4157 4178 4168 4203 4215 4222 4256 4264 4242 4255 4291 4292 4308 4313 4338 4355 4356 4379 4389 4369 4378 4329 4307 4290 4214 4202 4175 4176 4190 4191 4177 4153 4145 4099 4065 4066 4013 3908 3823 3791 3755 3768 3805 3743 3709 3676 3723 3675 3594 3643 3595 3467 3411 3379 3298 3297 3284 3252 3182 3136 3195 3181 3267 3336 3410 3392 3466 3552 3574 3573 3615 3593 3551 3642 3691 3754 3790 3812 3819 3890 3918 3935 3871 3990 4042 4064 4063 4052 4027 4041 4075 4098 4097 4074 4051 4062 3989 3889 3839 3811 3822 3833 3898 3999 4040 4106 4122 4115 4189 4213 4328 4368 4289 4174 4188 4212 4173 4090 4012 4039 3925 3917 3804 3734 3658 3641 3657 3528 3504 3640 3707 3721 3838 3853 3973 3897 3798 3741 3705 3706 3733 3614 3483 3464 3390 3281 3050 3166 3217 3235 3266 3282 3355 3315 3218 3134 3051 3033 3020 2981 2940 2913 2786 2508 2405 2485 2438 2437 2603 2901 2912 2665 2702 2872 3133 3104 3409 3265 3234 3216 3093 3092 3079 3091 3078 3314 3377 3548 3639 3703 3704 3820 3767 3720 3821 3860 3907 3869 3803 3879 3962 3947 3963 3870 3972 4050 4073 4121 4200 4201 4288 4337 4367 4386 4435 4461 4482 4520 4528 4536 4535 4579 4584 4594 4620 4699 4766 4795 4824 4820 4749 4723 4700 4647 4561 4572 4641 4667 4656 4687 4716 4724 4750 4767 4813 4863 4880 4913 4912 4862 4842 4867 4861 4911 4980 4979 5004 5019 5003 5002 4965 4964 4955 4935 4944 4954 5001 5000 4978 4933 4934 4910 4894 4879 4878 4893 4909 4860 4853 4833 4819 4779 4765 4794 4764 4805 4778 4775 4763 4698 4730 4610 4640 4666 4706 4715 4743 4742 4741 4756 4762 4812 4777 4740 4686 4755 4722 4705 4685 4665 4633 4625 4601 4577 4624 4761 4739 4721 4679 4664 4646 4623 4609 4593 4576 4592 4600 4555 4548 4504 4534 4516 4533 4523 4522 4503 4532 4617 4663 4673 4760 4736 4714 4678 4655 4618 4619 4639 4645 4697 4720 4738 4737 4754 4791 4792 4817 4818 4832 4858 4920 4941 4942 4988 4999 5024 5042 5016 4962 4943 4891 4875 4859 4852 4876 4953 4866 4877 4906 4892 4907 4931 4963 5031 5070 5017 4932 4908 4793 4774 4841 4989 5018 4976 4977 5061 5093 5094 5071 5062 5082 5112 5111 5144 5171 5185 5170 5184 5227 5211 5186 5172 5162 5157 5192 5206 5187 5195 5196 5212 5215 5228 5229 5188 5164 5147 5134 5115 5097 5126 5146 5145 5133 5163 5158 5132 5113 5114 5095 5096 5072 5063 4990 5025 5043 5026 5044 5032 5064 5045 5083 5065 5073 5084 5074 5075 5076 5046 5047 5027 5033 5048 5085 5178 5165 5219 5218 5234 5254 5255 5268 5274 5279 5295 5296 5318 5319 5325 5297 5281 5282 5312 5340 5337 5345 5378 5367 5362 5350 5349 5344 5336 5317 5324 5307 5323 5335 5339 5316 5289 5285 5290 5286 5273 5278 5272 5267 5253 5247 5243 5242 5238 5252 5261 5271 5260 5246 5251 5294 5315 5293 5277 5266 5265 5237 5217 5201 5183 5156 5191 5199 5200 5205 5226 5225 5204 5155 5154 5104 5069 5081 5092 4998 4940 4952 4930 4865 4851 4831 4890 4905 4889 4830 4804 4823 4811 4735 4713 4684 4644 4608 4570 4554 4547 4502 4452 4404 4366 4353 4333 4332 4325 4302 4286 4151 4144 4113 4096 4089 4072 4061 3970 3960 3969 3959 3905 3904 3894 3878 3859 3802 3740 3787 3732 3719 3689 3688 3655 3654 3589 3588 3523 3459 3352 3330 3312 3311 3264 3115 3215 3389 3408 3423 3545 3546 3610 3568 3501 3424 3569 3587 3586 3629 3630 3631 3701 3752 3765 3764 3731 3751 3779 3778 3687 3585 3522 3521 3441 3280 3248 3233 3214 3087 3060 3009 2624 2537 2505 2461 2402 2370 2309 2247 2197 2138 2020 2018 1988 1971 1885 2102 2015 1973 1888 1860 1883 1859 1833 1772 1717 1637 1626 1596 1623 1636 1661 1716 1668 1625 1638 1650 1669 1795 1794 1818 1886 1918 1946 1970 1972 2017 2019 1987 1917 1915 1861 1817 1816 1793 1745 1718 1700 1624 1582 1573 1566 1547 1571 1565 1572 1564 1537 1523 1530 1516 1529 1535 1543 1546 1517 1504 1474 1501 1507 1505 1473 1470 1469 1409 1391 1398 1503 1536 1563 1598 1554 1553 1548 1549 1581 1506 1486 1459 1442 1410 1392 1367 1343 1344 1335 1349 1364 1366 1381 1502 1485 1545 1454 1389 1374 1325 1262 1255 1294 1248 1184 1158 1133 1123 1168 1202 1173 1174 1157 1175 1201 1224 1256 1249 1225 1247 1257 1266 1315 1323 1356 1357 1390 1432 1443 1453 1538 1544 1696 1815 1773 1757 1699 1834 1887 2105 2141 2140 2139 2278 2340 2248 2434 2506 2433 2277 1969 1701 1697 1595 1597 1608 1651 1684 1698 1682 1683 1862 1884 1920 1947 2016 2045 2071 2070 1948 1916 1919 2104 2137 2276 2462 2431 2339 2371 2432 2572 2645 2699 2783 2859 2860 2919 2968 2975 2997 3010 3019 3088 3116 3180 3249 3331 3425 3502 3524 3460 3461 3462 3503 3525 3547 3611 3672 3673 3632 3612 3633 3656 3690 3634 3613 3590 3526 3463 3375 3353 3376 3332 3354 3527 3570 3571 3638 3702 3637 3636 3635 3788 3809 3797 3808 3796 3832 3845 3850 3851 3971 3895 3852 3810 3766 3780 3789 3867 3946 4038 4114 4120 4134 4133 4132 4131 4152 4119 4167 4199 4211 4236 4260 4271 4287 4303 4326 4345 4344 4361 4372 4414 4397 4384 4392 4405 4426 4427 4432 4444 4460 4467 4445 4420 4406 4398 4393 4385 4334 4305 4304 4261 4252 4237 4262 4253 4254 4272 4306 4374 4396 4335 4346 4373 4394 4395 4407 4415 4421 4453 4468 4446 4489 4490 4544 4524 4545 4525 4505 4475 4375 4433 4517 4526 4567 4571 4578 4546 4527 4518 4519 4434 4336 4311 4273 3998 4026 3934 3961 3906 3896 3868 3781 3442 3426 3313 3132 3049 3031 3048 3047 3077 3076 3103 3102 3090 3089 3046 3075 3131 3030 2976 2663 2538 2372 2310 2484 2539 2700 2507 2312 2311 2221 2142 2143 2106 1989 2072 2103 2279 1889 1835 1758 1719 1730 1702 1731 1759 2021 2281 2341 2280 2664 2720 2735 2899 2861 2784 2755 2785 2599 2540 2600 2541 2573 2646 2574 2403 2375 2374 2464 2373 2463 2342 2198 2107 2047 2024 1974 2023 2046 2022 1774 1703 1627 1583 1332 1336 1350 1382 1420 1518 1609 1574 1421 1460 1455 1487 1475 1461 1383 1393 1399 1433 1444 1411 1375 1422 1423 1456 1471 1476 1508 1524 1555 1599 1639 1575 1610 1775 1836 1922 1991 1976 1950 1975 2145 2249 2404 2344 2283 2199 2073 2025 1949 1890 1921 1990 2144 2282 2343 2435 2436 2465 2542 2625 2756 2813 2887 2900 2931 2977 2978 2947 2957 2979 2991 2998 3032 2999 2980 2939 2814 2701 2601 2575 2466 2602 2376 2027 1863 1891 1838 1923 2026 1837 1796 1776 1704 1662 1576 1556 1567 1477 1519 1488 1462 1434 1435 1413 1424 1414 1386 1385 1401 1412 1400 1384 1371 1341 1281 1265 1259 1252 1268 1272 1280 1292 1279 1271 1264 1251 1238 1226 1237 1258 1263 1290 1291 1304 1320 1321 1340 1351 1346 1339 1345 1317 1297 1278 1303 1302 1296 1289 1267 1250 1277 1301 1310 1316 1338 1337 1300 1295 1299 1288 1276 1177 1176 1135 1124 1113 1071 1011 982 929 896 897 827 793 774 765 766 750 734 703 668 656 646 749 757 748 733 747 755 756 772 790 761 721 711 731 722 714 718 696 700 691 694 681 666 664 663 633 593 645 702 764 789 804 819 818 835 836 863 862 893 920 936 950 952 953 921 922 907 908 919 872 894 909 895 949 954 961 964 981 980 1034 1134 1070 1021 1035 1096 1120 1054 951 884 846 871 854 845 844 826 745 719 701 680 690 692 729 730 762 783 803 817 816 825 810 788 782 732 695 679 665 642 641 630 620 605 628 621 602 603 592 581 580 559 476 470 467 456 513 531 535 530 534 549 550 562 558 561 560 604 622 623 629 624 667 710 712 720 743 744 763 791 792 773 746 713 709 693 678 655 644 643 631 632 579 536 484 472 462 440 449 468 471 413 361 341 327 326 318 314 313 302 303 301 290 265 277 286 299 292 258 231 232 222 237 242 241 254 264 266 298 289 319 362 348 333 291 288 275 263 257 276 300 287 273 285 274 256 245 236 230 220 212 196 192 190 194 197 206 213 219 221 229 218 207 167 148 188 195 211 217 191 181 172 171 174 177 178 180 189 204 203 205 179 175 173 166 160 164 156 155 144 154 159 147 136 124 115 113 112 93 98 73 66 59 75 69 61 89 99 92 114 129 130 135 146 165 145 128 106 101 91 84 85 82 74 68 67 57 58 48 47 52 72 83 100 81 90 60 33 18 23 27 32 26 13 8 5 9 12 17 10 16 19 28 20 1 6 29 31 42 45 46 86 76 43 87 77 53 49 40 39 34 14 2 11 3 24 35 62 54 55 70 56 63 36 21 15 4 7 22 37 41 50 71 64 78 95 94 102 107 108 109 139 150 149 157 162 169 138 131 161 126 125 117 116 137 168 214 223 233 246 278 304 334 315 308 293 267 247 234 224 198 208 238 248 279 294 305 328 335 355 354 370 376 363 403 405 441 473 475 483 477 469 450 448 428 434 414 463 489 501 502 537 551 563 567 566 594 606 625 647 658 657 682 683 669 670 659 660 684 751 735 758 794 811 910 911 937 885 886 898 938 923 864 828 856 855 838 837 820 812 805 767 736 737 784 806 775 829 830 873 887 924 912 939 947 940 925 913 888 889 874 875 899 914 941 957 973 986 985 972 984 994 1000 1022 1023 1036 1045 1057 1100 1099 1072 1056 1055 1013 983 966 956 946 955 1012 971 965 1085 1086 1097 1098 1110 1185 1186 1195 1178 1169 1141 1136 1129 1125 1114 1104 1073 1046 996 974 995 967 942 927 931 926 930 915 916 900 877 876 839 831 795 796 807 840 847 878 901 902 928 879 865 848 866 903 857 858 832 821 867 849 850 851 904 852 833 813 809 787 759 779 786 778 777 800 785 752 739 728 716 699 799 798 808 797 776 727 715 705 698 688 673 662 650 611 626 648 635 649 661 672 726 725 738 687 724 671 697 723 704 584 569 543 542 583 608 582 686 685 607 568 520 541 510 485 492 503 511 552 609 595 553 585 586 610 634 587 570 588 571 554 544 538 521 514 522 515 545 564 612 613 614 636 615 589 596 637 651 616 597 590 572 565 555 546 556 573 574 599 598 652 674 689 706 675 638 627 600 557 525 512 524 523 516 464 457 452 444 436 443 451 442 435 430 422 431 423 404 387 391 390 396 407 417 416 429 415 406 395 377 385 389 386 379 378 373 374 356 357 349 342 329 330 320 336 343 350 388 392 397 408 409 424 437 438 418 410 425 419 411 412 439 458 459 445 460 453 465 454 446 432 360 351 339 331 310 281 271 250 262 306 297 280 296 295 309 317 316 323 322 338 359 365 393 371 364 337 358 344 321 259 255 268 269 260 270 261 249 239 225 215 209 199 182 183 184 185 186 200 201 216 226 227 193 170 118 110 151 152 119 96 30 25 38 44 51 80 79 103 127 120 140 163 158 153 132 104 111 121 133 134 123 122 97 65 88 105 143 142 141 176 187 202 210 228 244 243 272 235 253 252 240 251 284 283 282 311 307 324 312 325 332 372 375 367 368 353 346 345 352 366 381 399 398 380 420 433 474 479 486 490 497 498 509 508 507 506 505 496 495 494 493 504 517 526 539 532 533 527 518 547 548 575 617 653 591 576 540 519 480 400 382 401 402 340 347 383 426 447 487 481 488 500 482 528 640 601 577 491 461 455 421 427 394 369 384 466 478 499 578 618 741 529 619 742 869 891 963 918 870 771 815 843 892 906 935 991 1033 1032 1031 1030 1010 1009 1020 1008 1042 1043 1044 1069 1103 1109 1155 1167 1182 1193 1219 1210 1211 1183 1194 1212 1223 1232 1254 1246 1245 1253 1314 1322 1342 1355 1354 1309 1222 1192 1156 1149 1154 1132 1115 1068 1053 1041 1052 1040 1019 1029 1028 1067 1084 1066 1051 1007 979 990 999 1006 1018 1039 1065 1027 1005 989 978 977 1004 1026 1095 1128 1139 1153 1191 1138 1127 1094 1064 1083 1082 1093 1092 1091 1081 1063 1062 1050 1049 1048 1038 868 883 934 1003 1080 1061 1079 1002 1112 976 882 905 1060 1025 1108 1102 1037 988 945 933 881 890 861 853 770 754 654 639 717 708 677 676 707 740 753 768 780 801 781 760 769 802 824 823 842 834 814 822 841 859 860 880 917 944 962 993 1017 975 970 969 987 960 959 958 948 932 943 968 1014 1105 1087 1111 1137 1146 1151 1116 1089 1076 1101 1075 1088 1074 1058 1047 997 992 998 1001 1024 1015 1016 1059 1117 1122 1118 1077 1090 1078 1106 1107 1119 1147 1181 1164 1152 1172 1180 1188 1189 1200 1199 1208 1218 1217 1207 1171 1170 1163 1162 1187 1206 1205 1215 1204 1161 1179 1160 1145 1159 1144 1143 1142 1126 1121 1140 1130 1150 1196 1220 1233 1239 1240 1227 1203 1197 1213 1228 1214 1198 1221 1229 1260 1298 1311 1326 1305 1306 1269 1241 1234 1216 1230 1235 1236 1231 1282 1312 1324 1273 1318 1333 1327 1328 1365 1372 1347 1358 1369 1359 1360 1348 1283 1261 1352 1376 1396 1416 1439 1395 1405 1426 1425 1458 1481 1526 1540 1510 1493 1492 1525 1491 1521 1490 1480 1446 1447 1463 1438 1404 1403 1368 1415 1402 1437 1445 1394 1436 1457 1478 1531 1520 1479 1489 1509 1539 1584 1611 1685 1720 1760 1797 1706 1705 1892 2108 2177 2028 1893 1798 1686 1652 1670 1687 1671 1721 1761 1777 1839 1864 1840 1732 1746 1722 1612 1640 1628 1585 1550 1527 1494 1464 1495 1532 1541 1613 1641 1600 1568 1569 1511 1465 1377 1274 1329 1353 1378 1387 1406 1440 1448 1427 1449 1417 1370 1361 1330 1319 1308 1307 1284 1275 1242 1190 1165 1131 1270 1285 1334 1331 1313 1293 1243 1209 1166 1148 1244 1286 1287 1451 1602 1747 1801 1819 1841 1781 1842 1896 1927 2077 2180 2147 2224 2378 2251 2179 2076 2113 2051 1996 1995 1926 1867 1762 1723 1724 1688 1653 1642 1601 1551 1558 1497 1498 1450 1388 1418 1429 1428 1496 1466 1512 1533 1528 1557 1586 1663 1780 1895 1734 1707 1733 1779 1866 1778 1799 1865 1894 1951 1992 2074 2030 2109 2029 2048 2284 2345 2576 2686 2703 2439 2285 2178 2110 2222 2313 2406 2509 2704 2757 2815 2758 2862 2736 2578 2543 2510 2577 2467 2440 2441 2407 2346 2250 2075 1993 1924 1925 2111 2146 2112 2049 1952 1800 1994 2050 2223 2511 2626 2581 2580 2579 2487 2469 2377 2347 2468 2486 2647 2666 2738 2737 2787 2816 2914 2941 2948 3039 3062 3061 3012 3034 3094 3053 2982 2992 3011 3052 3117 3147 3250 3316 3465 3505 3356 3333 3334 3357 3378 3391 3529 3549 3550 3591 3674 3708 3735 3753 3742 3722 3659 3592 3572 3427 3335 3283 3219 3220 3135 3148 3149 3167 3251 3168 3118 3054 3063 3080 3064 3035 3065 3105 3150 3196 3169 3221 3253 3268 3269 3198 3197 3151 3119 3106 3095 3066 3021 2983 3013 3000 2958 2920 2788 2789 2863 2888 2921 2915 2889 2839 2705 2582 2583 2348 2225 2200 2201 2488 2470 2442 2687 2739 2667 2604 2668 2688 2902 3154 3222 3238 3380 3443 3393 3358 3223 3285 3286 3270 3200 3081 3022 2950 2916 2873 2840 2759 2627 2740 1897 1672 1482 1407 1362 1552 1430 1419 1499 1500 1522 1614 1643 1673 1615 1577 1559 1514 1513 1483 1472 1484 1467 1441 1431 1379 1380 1408 1373 1363 1397 1452 1468 1515 1561 1560 1629 1654 1689 1690 1674 1675 1708 1726 1748 1737 1738 1710 1709 1677 1676 1664 1644 1630 1616 1617 1603 1604 1589 1588 1587 1562 1570 1542 1534 1579 1620 1660 1594 1580 1607 1621 1622 1714 1728 1742 1754 1769 1790 1810 1809 1828 1829 1811 1830 1831 1812 1791 1813 1770 1755 1756 1743 1744 1715 1729 1771 1792 1814 1832 1858 1881 1912 1943 1964 1942 1880 1911 1963 2010 2011 2012 2061 2090 2091 2092 2125 2162 2124 2161 2185 2211 2265 2296 2326 2325 2359 2389 2390 2417 2451 2496 2495 2524 2525 2526 2561 2562 2527 2497 2476 2418 2391 2392 2360 2329 2328 2327 2297 2298 2266 2186 2163 2126 2093 2063 2062 2040 1965 1966 1944 1967 1945 1913 1882 1914 1968 2267 2299 2330 2393 2419 2420 2498 2563 2528 2564 2529 2530 2565 2592 2593 2566 2531 2499 2478 2455 2425 2397 2364 2334 2333 2302 2301 2332 2362 2363 2396 2395 2423 2424 2454 2453 2477 2452 2421 2422 2394 2361 2331 2300 2269 2268 2238 2239 2212 2188 2166 2165 2187 2164 2127 2128 2094 2095 2064 2041 2042 2013 2014 2044 2043 2066 2065 2096 2097 2130 2129 2167 2168 2190 2189 2213 2240 2270 2271 2241 2214 2215 2191 2169 2131 2098 2067 2068 2069 2100 2099 2133 2132 2170 2171 2172 2134 2135 2136 2101 2175 2176 2308 2369 2368 2338 2337 2306 2307 2275 2246 2219 2220 2196 2174 2173 2195 2194 2193 2192 2216 2217 2218 2245 2244 2243 2242 2272 2303 2304 2273 2274 2305 2336 2335 2365 2398 2399 2366 2367 2400 2401 2429 2430 2460 2483 2482 2503 2504 2536 2535 2570 2571 2598 2597 2622 2623 2644 2643 2662 2685 2684 2698 2697 2683 2661 2642 2621 2596 2569 2568 2534 2502 2481 2459 2458 2428 2427 2426 2456 2457 2480 2479 2500 2501 2533 2532 2567 2594 2595 2620 2619 2618 2639 2640 2641 2660 2659 2658 2682 2696 2718 2719 2734 2733 2732 2753 2754 2782 2781 2812 2811 2836 2837 2838 2858 2857 2856 2886 2871 2855 2834 2835 2810 2809 2778 2779 2780 2752 2731 2717 2716 2695 2681 2657 2656 2637 2638 2617 2616 2615 2636 2655 2679 2680 2693 2694 2715 2730 2751 2750 2749 2729 2728 2748 2776 2777 2808 2833 2854 2853 2852 2831 2832 2807 2806 2775 2747 2727 2714 2713 2726 2746 2745 2772 2773 2774 2805 2804 2829 2830 2851 2870 2885 3038 3045 3044 3058 3059 3074 3085 3086 3101 3114 3113 3112 3100 3099 3111 3126 3143 3127 3144 3145 3128 3129 3130 3146 3165 3179 3194 3213 3232 3212 3193 3178 3164 3163 3177 3192 3176 3162 3161 3175 3190 3191 3210 3211 3231 3247 3262 3277 3294 3295 3278 3263 3279 3296 3310 3329 3351 3350 3374 3373 3372 3349 3328 3309 3308 3327 3348 3370 3371 3387 3388 3406 3405 3420 3421 3438 3454 3439 3422 3407 3440 3455 3456 3482 3500 3519 3520 3457 3458 3567 3584 3609 3653 3671 3686 3685 3700 3718 3730 3739 3738 3750 3763 3762 3777 3786 3776 3785 3775 3760 3761 3749 3748 3729 3717 3699 3698 3716 3697 3715 3684 3669 3670 3652 3608 3628 3627 3607 3566 3544 3518 3498 3499 3481 3480 3479 3497 3517 3543 3565 3564 3563 3605 3606 3625 3626 3651 3668 3667 3650 3624 3623 3649 3666 3665 3648 3622 3604 3582 3583 3562 3561 3539 3540 3541 3542 3516 3496 3495 3478 3453 3437 3419 3404 3386 3369 3368 3367 3385 3384 3366 3365 3383 3400 3401 3402 3403 3418 3436 3435 3417 3416 3434 3449 3450 3451 3452 3477 3476 3493 3494 3515 3514 3513 3538 3560 3581 3603 3602 3580 3579 3559 3537 3536 3558 3557 3535 3510 3511 3512 3492 3475 3474 3491 3490 3489 3473 3472 3447 3448 3433 3415 3399 3382 3364 3342 3343 3322 3321 3320 3303 3304 3305 3291 3290 3289 3288 3273 3255 3256 3257 3242 3226 3206 3187 3207 3208 3227 3243 3258 3244 3259 3274 3292 3306 3323 3344 3345 3346 3347 3326 3325 3324 3307 3293 3275 3276 3261 3260 3245 3246 3230 3229 3228 3209 3189 3188 3173 3174 3160 3142 3125 3110 3084 3083 3057 2990 2967 2956 2930 2938 2918 2911 2883 2884 2868 2869 2850 2867 2849 2882 2898 2897 2826 2797 2769 2798 2827 2828 2799 2800 2770 2801 2802 2803 2771 2744 2743 2742 2724 2725 2711 2712 2676 2653 2677 2678 2654 2635 2614 2591 2590 2560 2559 2523 2494 2558 2589 2675 2710 2692 2652 2634 2613 2612 2588 2587 2611 2633 2674 2651 2632 2610 2586 2550 2551 2519 2520 2552 2553 2554 2521 2522 2555 2556 2557 2475 2449 2357 2324 2233 2294 2261 2234 2235 2262 2416 2450 2388 2358 2295 2264 2237 2263 2236 2210 2184 2160 2123 2122 2159 2121 2089 2039 2038 2009 2008 2060 2088 2087 2059 2086 1962 1961 1909 1910 1827 1857 1856 1826 1789 1825 1855 1879 1941 2037 2058 2120 2158 2157 2208 2209 2260 2293 2323 2355 2356 2387 2415 2414 2448 2474 2493 2492 2518 2517 2516 2547 2548 2549 2585 2609 2631 2630 2629 2608 2607 2650 2649 2628 2673 2672 2691 2671 2606 2545 2648 2670 2690 2794 2878 2879 2822 2847 2823 2795 2768 2723 2796 2825 2848 2881 2824 2880 2910 2929 2966 3018 3008 3007 2974 2946 2955 2965 2928 2896 2909 2908 2877 2895 2894 2927 2964 2989 3042 3055 3082 3056 3043 3028 3037 3006 3029 3073 3098 3108 3225 3254 3272 3158 3159 3141 3109 3172 3205 3341 3488 3509 3578 3601 3683 3696 3727 3747 3773 3772 3737 3726 3714 3725 3621 3577 3487 3471 3363 3362 3432 3414 3534 3431 3361 3204 3157 3140 3156 3139 3072 3041 3027 3036 3005 2996 2973 2963 2953 2952 2943 2944 2945 2935 2936 2925 2924 2891 2843 2817 2844 2864 2904 2905 2906 2892 2875 2845 2818 2819 2763 2762 2721 2741 2764 2791 2792 2793 2846 2893 2917 2926 2954 2937 2907 2865 2765 2766 2820 2876 2866 2821 2767 2722 2709 2708 2707 2689 2706 2669 2605 2584 2544 2489 2471 2286 2226 2148 2080 2081 2082 2031 1999 1928 1953 1978 2000 1979 1929 1930 1903 1931 1932 1904 1872 1873 1851 1874 1905 1934 1933 1981 2002 1980 2001 2032 2115 2149 2116 2181 2203 2204 2150 2151 2152 2153 2117 2154 2182 2230 2229 2228 2205 2253 2289 2316 2288 2252 2287 2227 2202 2314 2315 2379 2408 2443 2444 2490 2472 2410 2409 2381 2380 2349 2350 2317 2290 2254 2255 2256 2231 2206 2155 2156 2118 2056 2036 2035 2055 2054 2034 2033 2083 2053 2003 2004 2005 2006 1984 1985 1957 1937 1906 1936 1956 1955 1983 1982 1954 1935 1875 1876 1877 1853 1852 1824 1806 1785 1766 1750 1751 1740 1741 1752 1767 1786 1768 1787 1807 1854 1878 1907 1938 1958 1939 1908 1959 2007 2119 2232 2257 2319 2318 2352 2351 2382 2445 2512 2473 2491 2513 2546 2514 2515 2446 2383 2354 2384 2411 2412 2447 2413 2386 2385 2322 2321 2259 2292 2320 2353 2291 2258 2207 2183 2085 2057 2084 1986 1960 1940 1808 1788 1753 1695 1694 1681 1667 1649 1659 1680 1713 1712 1693 1679 1658 1648 1635 1619 1605 1606 1593 1592 1591 1578 1590 1618 1634 1647 1657 1656 1646 1633 1632 1631 1645 1655 1665 1666 1678 1691 1692 1711 1727 1739 1749 1765 1805 1823 1822 1821 1850 1849 1871 1902 1901 1900 1899 1870 1848 1820 1847 1846 1869 1845 1868 1844 1843 1804 1784 1783 1803 1802 1764 1763 1736 1725 1735 1782 1898 1977 1997 1998 2079 2078 2052 2114 2761 2790 2842 2874 2890 2903 2841 2760 2922 2923 2951 2961 2987 3003 3002 3024 3016 3015 2960 2959 2971 2986 3023 3068 3185 3120 3069 3107 3121 3137 3171 3240 3239 3287 3300 3339 3381 3396 3395 3394 3360 3359 3413 3444 3532 3556 3412 3599 3619 3745 3713 3663 3681 3757 3620 3600 3533 3470 3445 3508 3397 3340 3319 3301 3271 3241 3201 3138 3122 3096 3097 3070 3025 2994 2962 2933 2934 2942 2972 2995 2988 3004 3017 3026 3040 3071 3123 3124 3155 3186 3202 3203 3224 3302 3398 3446 3486 3647 3664 3771 3758 3736 3682 3695 3746 3794 3826 3841 3825 3856 3817 3855 3875 3922 3939 3982 3983 4036 4070 4084 4087 3952 3929 4005 3940 3953 3902 3885 3884 3863 3883 3862 3836 3842 3827 3828 3848 3857 3864 3887 3843 3829 3818 3800 3784 3783 3728 3759 3774 3801 3806 3795 3807 3830 3831 3844 3865 3849 3837 3858 3866 3877 3888 3916 3915 3933 3943 3932 3931 3923 3942 3914 3903 3876 3893 3913 3930 3955 4006 3985 3941 3912 3886 3892 3911 3954 3984 4019 4048 4079 4130 4209 4258 4229 4220 4185 4171 4156 4141 4104 4112 4105 4080 4058 4023 4024 4059 4081 4060 4095 4082 4025 4008 4009 3996 3987 3986 3995 3994 4007 3967 3956 3957 3944 3924 3945 3958 3968 3988 4020 3997 4010 4011 4037 4049 4071 4083 4088 4143 4150 4166 4210 4198 4187 4172 4165 4164 4142 4186 4197 4232 4250 4233 4221 4234 4251 4259 4270 4235 4324 4323 4371 4383 4425 4443 4459 4487 4466 4488 4493 4500 4531 4530 4560 4588 4607 4661 4712 4704 4696 4672 4662 4631 4632 4616 4575 4589 4566 4553 4451 4481 4494 4501 4515 4543 4591 4590 4622 4654 4683 4729 4748 4789 4790 4803 4810 4850 4849 4874 4919 4929 5014 5059 5103 5102 5124 5058 5057 5013 5056 5080 5131 5142 5152 5209 5240 5305 5291 5314 5275 5259 5224 5193 5177 5123 5109 5041 5055 4951 4848 4822 4828 4840 4903 4904 4888 4829 4802 4801 4734 4776 4747 4773 4788 4827 4864 4902 4950 4987 5021 5020 5054 5151 5141 5169 5230 5239 5244 5248 5235 5223 5208 5150 5088 4961 4847 4816 4873 4746 4703 4677 4653 4615 4614 4586 4540 4541 4511 4430 4512 4499 4513 4542 4552 4559 4565 4568 4569 4587 4514 4480 4486 4431 4419 4413 4343 4285 4284 4301 4322 4283 4282 4310 4321 4281 4342 4196 4228 4163 4195 4208 4184 4140 4118 4103 4102 4056 4022 4057 4034 4035 4016 3980 4003 4017 4004 3981 3928 3938 4018 3910 3824 3835 3840 3874 3927 3951 3937 3950 3966 3979 4015 4047 4033 4046 4032 4045 4055 4077 4078 4094 4086 4093 4101 4117 4129 4128 4111 4139 4162 4181 4226 4227 4249 4182 4183 4219 4231 4269 4300 4320 4341 4331 4360 4299 4280 4352 4382 4351 4279 4207 4161 4110 4031 4002 3978 3921 3920 3816 3834 3882 3847 3782 3770 3712 3662 3646 3598 3618 3617 3597 3680 3679 3711 3815 3793 3769 3710 3693 3645 3661 3694 3678 3576 3555 3485 3507 3531 3469 3318 3237 3184 3153 3067 3014 2970 2949 2985 2932 2984 2969 2993 3001 3170 3183 3152 3199 3236 3299 3337 3338 3428 3429 3317 3430 3554 3644 3616 3596 3530 3575 3468 3553 3484 3506 3660 3692 3744 3792 3756 3677 3724 3813 3799 3814 3846 3880 3854 3901 3919 3974 3948 3909 3900 3872 3899 3964 4000 4091 4123 4124 4137 4147 4125 4126 4107 4085 4067 4028 4014 3975 4029 4053 4076 4054 4043 4001 3991 3926 3891 3861 3873 3881 3965 3976 4044 4100 4092 4108 4149 4160 4155 4127 4116 4148 4159 4158 4154 4179 4194 4193 4205 4204 4217 4224 4225 4257 4244 4245 4266 4276 4296 4317 4295 4309 4357 4400 4409 4417 4423 4440 4441 4449 4428 4442 4473 4479 4463 4464 4458 4429 4450 4424 4410 4411 4381 4402 4401 4359 4340 4391 4390 4358 4350 4339 4330 4318 4297 4298 4277 4267 4278 4230 4206 4180 4218 4246 4268 4169 4109 4068 4021 3977 3992 3949 3936 3993 4030 4069 4138 4170 4247 4248 4319 4403 4412 4418 4465 4498 4474 4485 4510 4497 4551 4574 4599 4598 4613 4630 4676 4682 4695 4660 4638 4643 4728 4732 4694 4693 4711 4745 4759 4771 4786 4785 4809 4800 4784 4783 4770 4753 4752 4681 4629 4628 4671 4659 4658 4652 4637 4636 4657 4670 4669 4651 4642 4627 4612 4621 4626 4635 4675 4680 4717 4725 4690 4701 4708 4718 4726 4727 4709 4691 4692 4710 4702 4719 4758 4799 4798 4782 4781 4807 4808 4837 4844 4845 4857 4938 4958 4985 5009 5036 5051 5035 5029 5050 5105 5117 5173 5174 5148 5118 5106 5119 5100 5128 5127 5136 5166 5203 5233 5222 5189 5182 5175 5176 5149 5129 5107 5078 5052 5037 4986 5038 5039 5053 5067 5101 5108 5137 5167 5168 5138 5139 5159 5120 5040 5030 4995 5010 4973 4974 4928 4959 4939 4887 4872 4838 4733 4772 4787 4815 4826 4839 4846 4918 4996 5011 4975 4960 4997 5012 5068 5079 5122 5121 5160 5140 5130 5190 5197 5214 5263 5298 5393 5446 5505 5493 5406 5387 5363 5396 5347 5351 5352 5372 5410 5438 5458 5463 5439 5411 5420 5425 5426 5427 5421 5394 5385 5384 5376 5388 5373 5338 5327 5309 5341 5369 5364 5357 5342 5299 5287 5270 5304 5358 5389 5408 5412 5407 5422 5429 5428 5435 5441 5444 5459 5472 5500 5507 5491 5486 5464 5465 5473 5466 5452 5430 5460 5471 5478 5467 5453 5431 5409 5399 5398 5395 5379 5374 5353 5370 5365 5380 5359 5354 5343 5348 5355 5375 5397 5413 5401 5400 5417 5416 5436 5447 5448 5474 5494 5487 5479 5468 5469 5461 5442 5432 5433 5418 5414 5402 5403 5381 5377 5361 5360 5356 5333 5332 5329 5322 5328 5310 5301 5300 5288 5264 5249 5245 5231 5198 5194 5153 5125 5089 5060 5022 5015 5023 5090 5091 5110 5143 5161 5210 5216 5236 5241 5250 5276 5292 5303 5306 5302 5311 5330 5334 5366 5371 5382 5404 5423 5450 5462 5455 5449 5454 5482 5481 5480 5492 5501 5516 5537 5531 5568 5549 5554 5530 5559 5567 5572 5587 5571 5596 5609 5618 5603 5610 5626 5619 5611 5641 5637 5642 5638 5627 5604 5605 5639 5655 5654 5665 5684 5717 5701 5702 5703 5726 5748 5736 5711 5712 5656 5643 5597 5598 5588 5573 5517 5495 5496 5497 5475 5483 5498 5502 5526 5538 5518 5555 5562 5561 5560 5589 5574 5575 5576 5577 5578 5579 5612 5613 5644 5666 5628 5620 5629 5606 5580 5550 5539 5532 5519 5510 5520 5541 5540 5556 5563 5581 5590 5599 5582 5569 5583 5607 5614 5621 5630 5646 5645 5657 5686 5685 5727 5744 5810 5824 5793 5834 5845 5760 5783 5759 5782 5809 5833 5862 5871 5861 5860 5852 5844 5808 5807 5806 5792 5776 5775 5805 5843 5859 5890 5891 5935 5921 5934 5955 5946 5920 5889 5908 5888 5945 5966 5992 5991 5965 5954 5944 5907 5906 5905 5880 5885 5886 5887 5881 5858 5851 5832 5823 5774 5725 5700 5683 5682 5724 5743 5773 5781 5791 5822 5790 5772 5821 5842 5857 5879 5878 5904 5919 5933 5943 5964 5974 5981 5986 6022 6013 6009 5973 5980 5963 5918 5903 5870 5850 5849 5830 5831 5820 5780 5758 5742 5716 5715 5723 5722 5714 5681 5673 5636 5635 5653 5652 5664 5699 5710 5721 5747 5789 5804 5819 5829 5818 5803 5788 5757 5746 5741 5756 5779 5771 5802 5817 5816 5841 5787 5786 5734 5735 5709 5697 5698 5651 5593 5565 5594 5633 5634 
