Best cost: 79114
Time: 28426.9
Route:
344 359 373 363 347 333 356 404 394 391 399 427 456 466 482 516 531 540 553 565 594 608 593 546 545 549 495 467 468 461 464 452 440 415 403 393 396 397 407 398 385 388 358 361 349 362 366 382 367 354 350 307 320 308 311 299 288 255 259 287 290 286 283 275 258 254 250 282 303 315 327 319 309 318 302 297 293 285 278 279 249 221 210 204 214 228 222 216 206 193 197 188 185 172 158 164 144 136 198 201 177 173 152 148 145 141 129 128 116 102 101 94 106 122 138 146 153 154 174 183 194 202 211 217 218 223 219 225 232 238 260 273 304 276 264 241 226 203 189 175 166 149 135 130 139 155 150 159 176 178 167 179 168 163 161 157 160 156 131 137 142 140 151 147 143 125 132 134 113 104 108 119 112 107 111 114 117 97 82 96 103 99 87 78 64 32 30 33 35 37 48 52 57 59 61 88 89 90 70 62 65 71 49 42 38 31 29 20 14 9 13 12 15 23 24 26 28 34 40 39 43 51 55 60 69 92 98 83 95 100 120 126 121 124 123 105 72 73 74 75 76 68 58 67 63 54 44 50 53 56 66 41 21 19 17 10 8 4 5 7 2 1 3 6 11 25 22 18 16 27 36 45 46 47 77 93 84 85 79 80 81 86 91 115 127 133 118 110 109 170 171 184 196 187 169 165 162 180 190 191 195 212 215 192 181 182 213 209 229 240 242 248 271 257 247 256 246 281 289 313 317 295 296 270 263 262 269 237 253 292 245 208 266 265 261 252 236 234 205 220 227 231 224 200 186 199 207 230 233 235 251 243 239 244 274 284 277 267 268 272 280 305 301 306 294 312 343 331 352 365 381 395 401 372 387 384 374 375 353 348 338 337 322 325 326 314 357 379 402 412 443 426 419 454 462 465 470 480 494 490 500 523 536 526 517 512 504 476 460 472 455 449 421 463 473 483 481 501 515 520 522 519 513 509 518 527 544 539 543 551 559 558 576 585 591 614 623 633 632 622 618 613 630 602 572 567 590 621 612 617 589 580 575 579 584 611 601 600 578 557 560 556 542 562 571 581 577 607 637 642 650 665 671 664 659 663 687 691 697 715 721 720 719 718 731 730 728 729 733 732 727 726 725 722 716 711 706 699 690 686 681 677 673 662 649 647 657 669 660 674 682 698 700 703 702 707 714 717 713 710 701 704 708 709 705 696 695 688 685 678 672 666 654 651 644 645 646 658 655 643 640 631 615 619 624 616 610 604 588 586 564 548 511 503 488 492 489 514 535 537 498 499 508 493 485 479 453 459 424 447 446 451 448 439 438 411 390 392 368 364 340 332 336 330 335 346 345 371 370 378 400 435 408 418 410 416 422 436 442 458 475 478 497 486 507 530 538 533 534 541 552 555 570 573 592 599 606 609 605 629 628 627 625 638 620 574 563 529 510 506 521 525 550 561 587 598 626 648 656 670 680 689 684 676 675 653 639 635 636 583 597 582 569 568 596 603 641 661 668 679 683 694 724 693 734 723 712 692 652 634 667 595 566 524 532 547 554 528 496 474 469 471 444 425 445 428 429 420 409 389 376 377 380 383 405 406 417 441 430 433 431 437 457 477 487 502 505 491 484 450 434 432 423 413 414 386 369 360 339 328 329 300 321 324 316 298 291 310 323 334 342 351 341 355 
