Best cost: 87561
Time: 1276.51
Route:
1318 1316 1325 1333 1327 1330 1336 1322 1335 1309 1337 1339 1349 1355 1341 1340 1342 1347 1352 1354 1380 1358 1357 1383 1367 1372 1381 1386 1385 1382 1389 1394 1396 1397 1402 1384 1359 1338 1361 1375 1411 1398 1395 1404 1403 1409 1407 1415 1421 1419 1427 1426 1425 1422 1429 1437 1441 1442 1431 1420 1408 1435 1439 1447 1451 1450 1455 1445 1448 1456 1457 1453 1443 1440 1428 1423 1449 1462 1464 1467 1466 1471 1474 1476 1477 1479 1463 1481 1482 1484 1473 1487 1503 1497 1507 1510 1513 1506 1512 1520 1527 1516 1514 1515 1524 1531 1541 1536 1538 1542 1547 1551 1552 1553 1554 1558 1560 1564 1569 1571 1559 1532 1489 1430 1418 1410 1405 1388 1370 1400 1393 1391 1368 1356 1348 1329 1296 1287 1293 1312 1320 1334 1343 1345 1344 1350 1366 1362 1413 1458 1399 1376 1373 1369 1353 1332 1324 1303 1302 1235 1188 1154 1125 1079 1090 1104 1087 1102 1097 1155 1162 1226 1262 1306 1323 1319 1331 1390 1387 1379 1378 1374 1377 1371 1365 1401 1392 1406 1412 1433 1470 1491 1488 1485 1493 1486 1465 1438 1452 1424 1414 1417 1434 1444 1469 1480 1475 1490 1492 1500 1505 1528 1535 1534 1537 1548 1557 1570 1588 1579 1574 1575 1580 1582 1581 1585 1583 1584 1587 1591 1592 1593 1598 1601 1600 1606 1607 1605 1602 1608 1610 1620 1621 1623 1624 1627 1629 1630 1631 1633 1642 1644 1635 1649 1648 1650 1654 1655 1657 1658 1661 1663 1669 1664 1662 1665 1659 1656 1653 1628 1641 1632 1640 1639 1638 1647 1667 1671 1682 1701 1685 1680 1681 1668 1672 1673 1675 1676 1677 1686 1683 1690 1691 1695 1700 1702 1703 1704 1705 1706 1709 1711 1713 1714 1716 1718 1722 1717 1721 1724 1726 1728 1729 1730 1732 1739 1741 1742 1743 1744 1746 1748 1749 1750 1751 1752 1758 1759 1764 1767 1770 1776 1777 1772 1782 1788 1790 1792 1791 1793 1798 1795 1794 1799 1800 1801 1805 1812 1807 1809 1810 1811 1818 1820 1822 1828 1832 1840 1839 1842 1833 1824 1827 1831 1835 1844 1838 1841 1829 1815 1813 1819 1834 1845 1877 1872 1874 1850 1847 1853 1851 1855 1865 1871 1878 1873 1866 1868 1882 1888 1891 1892 1896 1895 1899 1905 1904 1900 1906 1897 1901 1902 1903 1889 1876 1861 1856 1883 1893 1898 1890 1885 1879 1859 1862 1857 1852 1875 1863 1869 1858 1860 1916 1920 1943 1955 1949 1942 1937 1951 1958 1961 1965 1968 1969 1972 1970 1973 1974 1975 1977 1978 1979 1976 1971 1967 1966 1964 1962 1963 1960 1956 1947 1939 1922 1914 1918 1936 1934 1935 1938 1944 1946 1950 1945 1940 1932 1930 1933 1928 1923 1911 1909 1908 1913 1910 1915 1919 1924 1912 1917 1926 1925 1931 1929 1941 1948 1952 1953 1957 1959 1954 1927 1921 1907 1894 1887 1848 1880 1881 1886 1884 1870 1867 1864 1854 1849 1846 1843 1836 1830 1825 1837 1826 1823 1821 1816 1817 1814 1808 1806 1804 1803 1797 1802 1796 1789 1787 1783 1779 1775 1784 1786 1780 1774 1785 1781 1778 1773 1771 1769 1768 1766 1765 1763 1762 1761 1760 1757 1756 1755 1754 1753 1747 1745 1737 1740 1736 1725 1712 1687 1689 1684 1696 1693 1692 1688 1674 1670 1660 1679 1678 1694 1698 1699 1707 1708 1720 1710 1715 1723 1727 1731 1733 1734 1735 1738 1719 1697 1666 1643 1651 1634 1636 1645 1652 1646 1637 1625 1626 1622 1618 1594 1595 1596 1589 1590 1603 1615 1619 1604 1597 1576 1577 1578 1566 1555 1556 1567 1568 1563 1549 1533 1523 1522 1526 1540 1521 1511 1504 1496 1495 1498 1508 1501 1460 1461 1478 1483 1472 1468 1459 1416 1454 1446 1432 1436 1499 1494 1502 1530 1539 1546 1562 1573 1572 1565 1561 1550 1545 1544 1543 1529 1586 1599 1611 1616 1614 1617 1612 1613 1609 1525 1519 1518 1517 1509 1360 1351 1346 1277 1278 1282 1364 1363 1328 1326 1321 1315 1310 1314 1313 1299 1294 1263 1252 1222 1191 1203 1190 1194 1197 1228 1231 1234 1238 1221 1215 1227 1245 1254 1240 1233 1130 1123 1122 1113 1107 1089 1081 1069 993 1015 1000 869 862 857 843 812 746 747 789 830 881 891 906 923 931 942 952 982 975 944 929 903 935 932 835 775 776 654 731 733 707 634 616 603 618 630 684 695 727 734 756 795 804 845 861 878 871 870 902 948 985 996 1006 1012 1044 1055 1041 1036 1063 1057 1053 1029 1026 1038 1045 1034 1040 1066 1070 1126 1163 1204 1182 1185 1164 1135 1105 1139 1186 1171 1124 1112 1094 1073 1086 1088 1091 1072 1068 1033 1039 1049 1060 1059 1165 1166 1193 1216 1206 1230 1237 1246 1261 1258 1253 1279 1304 1307 1317 1311 1305 1308 1270 1280 1290 1247 1232 1212 1201 1174 1169 1151 1160 1157 1152 1145 1142 1143 1132 1119 1111 1084 1101 1095 1075 1048 1023 1008 976 943 924 904 897 907 890 873 899 911 920 919 983 954 917 889 877 847 778 819 813 783 753 685 651 639 613 585 548 549 568 623 655 664 656 689 720 765 766 736 758 764 767 781 787 806 791 858 855 863 860 866 859 856 837 816 820 834 809 801 780 743 677 713 740 771 798 828 829 850 844 841 852 849 896 921 927 933 937 980 1054 1051 1050 1042 1067 1077 1082 1092 1099 1149 1167 1181 1207 1224 1241 1250 1257 1242 1249 1196 1173 1172 1134 1127 1120 1100 1117 1121 1133 1144 1158 1153 1146 1175 1115 1109 1064 1047 1037 1035 1020 1016 994 965 961 956 970 957 885 868 839 832 826 817 814 807 808 751 793 811 799 800 802 810 803 790 779 773 748 741 729 711 633 659 636 619 620 644 665 679 681 690 694 702 701 708 716 724 728 745 752 769 762 755 750 725 705 671 666 657 647 643 572 573 588 607 562 535 512 528 527 519 511 503 429 420 415 416 411 397 342 437 424 288 263 261 245 241 227 221 224 222 217 214 211 206 201 207 205 212 197 186 190 182 170 161 137 127 113 115 139 145 153 144 138 136 140 156 150 152 146 133 126 132 143 169 157 130 116 111 112 149 148 158 155 147 135 142 159 141 134 129 125 101 110 103 124 123 119 117 131 154 160 162 163 168 167 166 165 171 177 176 178 183 185 181 188 189 194 208 193 192 187 180 184 172 173 174 16 1 2 3 4 6 5 17 7 8 9 12 14 13 18 22 24 26 31 33 65 87 85 86 77 64 66 68 89 83 63 56 40 37 46 98 102 99 96 90 81 91 106 104 88 48 27 19 10 15 21 29 32 58 72 84 95 120 121 114 57 53 69 94 107 122 118 97 80 100 74 62 52 51 49 45 41 23 25 20 36 42 39 60 70 75 76 105 92 79 61 71 59 78 93 50 43 34 67 73 82 109 128 151 164 108 55 47 44 30 38 35 11 28 54 175 179 191 196 199 203 210 195 198 200 202 204 209 213 215 216 218 219 220 223 248 256 255 260 264 265 273 312 334 310 317 322 329 337 341 345 364 366 379 396 400 395 414 418 417 431 448 451 470 468 472 488 495 505 532 538 578 574 579 567 560 526 516 508 501 506 497 489 510 514 515 518 570 587 575 566 544 545 534 539 543 556 589 582 674 719 661 612 672 590 606 625 669 682 598 594 610 615 622 627 650 658 642 687 712 772 785 846 788 782 770 774 749 737 757 714 704 693 686 698 563 552 524 523 513 504 494 474 455 456 457 447 446 467 454 445 444 453 466 473 443 442 452 487 490 493 520 529 536 550 521 530 522 531 537 551 565 577 591 609 621 628 626 641 640 624 632 614 648 673 676 670 663 678 680 726 759 742 738 735 744 761 763 821 822 842 825 840 865 922 934 938 1032 1046 1056 1058 1085 1118 1189 1200 1136 1179 1195 1183 1268 1259 1239 1184 1180 1168 1178 1156 1138 1131 1114 1093 1074 1080 1103 1116 1096 1083 1078 1076 1071 1062 1028 1024 1043 1030 1022 1018 1017 1013 1027 1001 999 939 930 941 945 946 950 953 951 962 967 959 964 969 973 981 971 986 984 988 989 987 974 978 991 995 977 968 963 979 966 936 872 879 876 867 851 838 853 883 901 900 955 972 990 1010 1003 1005 998 960 949 912 887 875 792 760 723 717 703 697 699 721 730 732 739 688 722 709 710 706 718 715 700 691 692 683 662 646 586 596 561 557 558 546 547 553 540 541 554 580 597 608 637 635 631 605 601 595 599 600 584 653 576 571 555 542 533 509 507 492 449 440 439 435 432 436 386 333 332 328 313 326 325 343 361 362 370 383 392 404 403 402 421 422 423 426 427 430 433 441 500 496 491 486 483 476 475 463 428 399 394 388 378 369 356 382 377 354 352 344 348 350 311 309 308 300 276 275 274 271 270 267 266 257 237 226 228 225 229 230 234 231 233 232 235 236 238 242 247 251 250 240 239 243 244 246 249 252 253 254 258 259 262 268 269 272 277 283 284 282 281 278 280 287 297 303 305 302 298 290 292 294 286 291 296 285 279 289 293 295 299 306 301 304 307 327 330 351 336 339 365 373 372 376 359 353 357 381 380 368 390 391 401 425 412 419 405 398 406 407 410 409 408 413 387 384 375 363 347 355 349 340 323 324 331 321 316 314 320 315 318 319 335 338 346 358 360 367 374 371 385 389 393 434 438 450 460 462 464 469 477 479 478 481 485 484 480 471 465 459 458 461 482 502 499 498 517 525 559 569 652 638 629 611 604 593 581 564 592 583 602 617 649 645 660 667 675 668 696 754 784 768 777 805 786 794 796 818 824 836 831 823 854 882 888 886 895 918 914 926 915 909 905 910 892 925 928 908 884 880 833 864 815 797 827 848 874 894 893 947 898 913 916 940 958 1002 1004 1007 1009 1019 1011 1021 1031 1065 1061 1098 1106 1128 1025 1014 992 997 1052 1108 1192 1202 1161 1198 1211 1243 1248 1256 1267 1269 1276 1284 1292 1291 1289 1288 1283 1301 1295 1298 1297 1286 1272 1275 1264 1266 1260 1219 1209 1187 1208 1271 1274 1281 1265 1273 1244 1236 1229 1223 1218 1214 1217 1205 1220 1213 1199 1176 1170 1148 1137 1140 1147 1159 1150 1141 1129 1110 1177 1210 1225 1255 1251 1285 1300 
