FILE: qa194.tsp
Cities: 194
Runs: 194

Tabu length: 100
Max iterations: 10000
Neighborhood size: 10000
Stop (no improvement): 1000

Best cost: 9595
Average cost: 10012.4
Execution time: 594.356 seconds

Best route:
137 134 132 126 125 127 130 111 104 101 99 94 89 90 98 86 85 65 20 63 36 59 62 82 71 80 87 76 75 78 72 74 69 60 57 45 29 22 28 33 18 21 24 26 17 7 11 14 25 23 13 16 8 6 1 4 2 3 5 9 10 12 15 19 30 32 31 35 42 50 55 49 44 38 41 46 48 54 52 53 56 58 43 40 34 27 37 39 47 51 61 67 73 66 68 64 70 77 84 81 79 83 88 92 100 110 112 108 107 105 106 97 95 96 93 91 103 102 109 113 114 119 138 139 144 150 154 157 153 152 141 122 118 116 115 117 121 120 123 124 128 133 135 129 131 136 143 148 155 151 147 158 162 160 166 171 170 167 159 165 168 178 180 185 193 188 191 192 189 184 181 177 175 173 174 179 186 183 187 190 194 182 176 172 169 164 163 161 156 145 149 146 142 140 
