FILE: eg7146.tsp
Cities: 7146
Runs: 100

Tabu length: 200
Max iterations: 30000
Neighborhood size: 50000
Stop (no improvement): 10000

Best cost: 184802
Average cost: 188788
Execution time: 29185.3 seconds

Best route:
4356 4447 4315 4241 4248 4203 4132 4103 4100 4131 4177 4091 4043 4047 3938 3999 3996 3930 3968 4015 4024 4059 4040 4092 4094 4168 4303 4411 4427 4440 4375 4520 4495 4563 4588 4638 4655 4683 4722 4723 4637 4724 4746 4767 4904 4883 4867 4833 4789 4757 4806 4863 4756 4774 4818 4875 4850 4721 4700 4610 4589 4451 4436 4525 4493 4434 4394 4393 4314 4256 4283 4272 4212 4181 4116 4057 4020 4027 3916 3915 3866 3998 4115 4193 4122 4082 4130 4211 4145 4113 4002 3986 4055 4056 4069 3967 4192 4171 4265 4348 4464 4443 4316 4263 4300 4392 4477 4425 4415 4202 4151 4110 4053 4054 3994 3933 3940 3914 3919 3853 3908 3826 3758 3704 3680 3576 3565 3483 3514 3465 3453 3376 3283 3234 3174 3158 3222 3138 3103 3111 3086 3050 2999 2988 2989 2948 3015 3045 3108 3190 3167 3175 3112 3046 3001 3000 2932 2940 2892 2891 2890 2889 2831 2733 2729 2689 2722 2817 2803 2888 2914 2874 2779 2688 2670 2613 2631 2641 2591 2625 2630 2708 2724 2690 2726 2742 2691 2661 2594 2590 2549 2551 2505 2472 2455 2443 2429 2407 2401 2393 2406 2415 2435 2459 2438 2474 2518 2560 2521 2532 2531 2509 2471 2442 2398 2372 2371 2343 2336 2320 2326 2301 2314 2304 2260 2272 2294 2315 2322 2337 2366 2392 2424 2466 2441 2396 2386 2361 2334 2323 2358 2344 2357 2367 2387 2436 2461 2462 2463 2510 2506 2479 2484 2494 2511 2520 2597 2607 2634 2660 2672 2692 2656 2693 2752 2799 2893 2753 2694 2663 2640 2621 2598 2561 2517 2485 2513 2533 2605 2620 2648 2695 2696 2681 2697 2666 2698 2754 2746 2782 2781 2792 2787 2718 2673 2650 2579 2534 2552 2642 2628 2604 2567 2550 2497 2475 2453 2439 2402 2384 2399 2432 2397 2362 2368 2329 2338 2394 2408 2434 2457 2486 2448 2467 2580 2535 2499 2487 2437 2417 2403 2425 2416 2395 2356 2346 2347 2348 2373 2418 2444 2456 2488 2514 2489 2465 2503 2562 2570 2655 2700 2713 2757 2776 2780 2836 2870 2902 2951 2964 3003 3016 2968 2950 2927 2917 2901 2876 2756 2749 2755 2744 2687 2676 2682 2635 2606 2581 2657 2699 2747 2794 2835 2834 2822 2833 2861 2898 2899 2913 2886 2900 2930 2971 2980 2985 2972 3008 3055 3084 3067 3117 3116 3093 3043 2996 2949 2987 3031 3054 3090 3115 3147 3163 3139 3213 3231 3239 3265 3309 3308 3336 3370 3377 3471 3528 3472 3334 3240 3290 3254 3241 3208 3242 3243 3345 3311 3300 3287 3310 3351 3388 3378 3389 3414 3515 3549 3601 3623 3655 3692 3693 3645 3615 3617 3542 3551 3550 3473 3441 3419 3442 3443 3413 3445 3438 3496 3519 3541 3539 3530 3583 3672 3624 3656 3631 3552 3508 3484 3449 3409 3390 3313 3312 3359 3352 3279 3275 3215 3204 3221 3232 3192 3153 3145 3148 3074 3119 3098 3105 3180 3140 3118 3102 3168 3125 3165 3179 3162 3104 3099 3071 3070 3079 3080 3056 3032 3004 2984 2973 2944 2952 2903 2904 2918 2953 2941 2884 2905 2857 2882 2906 2955 2954 2993 3005 3057 3091 3120 3100 3077 3038 2994 3026 2975 2963 2934 2912 2875 2851 2863 2720 2706 2675 2685 2653 2610 2618 2643 2652 2750 2712 2617 2627 2599 2564 2571 2565 2554 2539 2522 2478 2480 2495 2557 2583 2638 2651 2612 2668 2680 2769 2838 2881 2820 2837 2795 2796 2758 2739 2730 2717 2701 2714 2725 2702 2686 2679 2674 2659 2637 2658 2646 2588 2582 2636 2608 2553 2536 2519 2490 2469 2449 2433 2420 2400 2450 2460 2464 2537 2538 2589 2563 2504 2427 2388 2378 2352 2300 2296 2309 2324 2328 2331 2355 2330 2363 2389 2391 2390 2431 2404 2428 2382 2379 2364 2335 2422 2405 2430 2451 2477 2498 2493 2515 2546 2555 2593 2558 2542 2492 2468 2470 2491 2476 2502 2512 2541 2507 2496 2473 2454 2440 2458 2500 2508 2540 2568 2574 2573 2547 2556 2559 2596 2611 2662 2716 2723 2784 2759 2777 2821 2880 2938 2931 2961 3017 3009 3021 2978 2937 2933 2965 2966 3020 3019 3040 3094 3129 3144 3123 3199 3170 3172 3161 3141 3185 3182 3195 3181 3268 3271 3288 3249 3301 3349 3391 3385 3357 3488 3507 3584 3694 3709 3683 3675 3611 3592 3553 3544 3564 3554 3485 3395 3354 3319 3326 3250 3225 3219 3244 3282 3289 3210 3224 3291 3364 3366 3323 3436 3506 3555 3595 3606 3605 3603 3602 3591 3585 3577 3568 3491 3458 3425 3350 3347 3333 3330 3273 3211 3160 3155 3157 3262 3186 3107 3081 3127 3132 3121 3058 3010 3047 3059 3092 3033 3011 2974 2928 2945 2942 2864 2802 2839 2813 2797 2783 2778 2767 2766 2770 2738 2705 2683 2609 2615 2575 2595 2572 2584 2600 2629 2622 2667 2709 2727 2732 2768 2760 2711 2665 2592 2585 2566 2543 2569 2624 2603 2623 2548 2501 2619 2601 2516 2602 2664 2761 2740 2809 2800 2808 2811 2816 2804 2771 2773 2850 2789 2736 2814 2842 2871 2915 2868 2877 2866 2865 2825 2707 2644 2654 2671 2703 2734 2815 2786 2785 2751 2731 2810 2841 2840 2878 2887 2943 2992 3022 3072 3082 3060 3028 3035 3069 3068 3013 3006 3012 3064 3063 3062 3073 3041 3044 3061 3066 3097 3124 3203 3126 3130 3187 3253 3320 3321 3260 3201 3191 3206 3183 3159 3218 3246 3302 3355 3292 3255 3189 3247 3296 3337 3317 3329 3393 3423 3394 3429 3451 3428 3487 3416 3437 3459 3457 3518 3479 3106 2922 2885 2867 2852 2843 2858 2805 2807 2762 2735 2745 2748 2774 2791 2790 2801 2869 2818 2853 2788 2793 2819 2798 2844 2763 2764 2845 2846 2907 2908 2956 2957 2958 3065 3007 2959 2911 2910 2909 2847 2848 2849 2765 2704 2639 2586 2587 2544 2545 2452 2423 2381 2380 2353 2233 2188 2189 2151 2123 2115 2098 1988 2046 2047 2023 1998 1977 1963 1964 1945 1938 1939 1924 1923 1931 1930 1929 1906 1900 1874 1840 1764 1599 1425 1358 1160 1207 1126 1113 1283 998 1070 1087 1217 1388 1413 1422 1799 1946 1862 1907 1913 2523 3256 4062 5968 6111 6524 6242 6166 5780 5706 5661 5639 5586 5141 5140 5183 5132 5103 5062 4969 4896 5013 4892 4657 4583 4398 4499 4222 4221 4220 4137 4136 3979 3653 3318 3480 3280 3651 3650 3618 3594 3788 3823 3898 3859 3861 3836 3756 3814 3871 4013 4025 4033 3973 3984 4041 3974 3872 3873 3918 3975 3976 4021 4044 4178 4199 4188 4201 4335 4534 4538 4431 4320 4420 4460 4284 4304 4189 4175 4090 3995 3943 3936 3924 3838 3874 3840 3837 3789 3722 3736 3796 3790 3765 3791 3851 3875 3906 3977 3956 3978 3925 3951 4219 4422 4305 4179 4218 4217 4290 4381 4428 4358 4397 4498 4518 4530 4698 4676 4821 5506 5514 5752 6272 6241 6425 6376 6434 6542 6588 6671 6766 6855 6859 6984 6991 6990 6979 6975 6944 6926 6889 6923 6922 6888 6864 6846 6848 6808 6852 6828 6806 6800 6747 6748 6735 6782 6772 6729 6709 6646 6645 6623 6574 6367 6351 6289 6027 5990 6020 6055 6158 6159 6196 5937 5905 5819 5853 5821 5818 5697 5676 5589 5503 5504 5505 5443 5385 5474 5490 5483 5475 5452 5400 5245 5196 5158 5246 5283 5344 5401 5453 5513 5581 5645 5677 5619 5854 5882 5805 5646 5529 5551 5571 5664 5773 5779 5750 5689 5705 5738 5797 5890 5945 5999 6096 6123 6056 6028 5987 5935 5936 5932 5942 6057 5962 5908 5856 5879 5895 5894 5855 5858 5866 5822 5784 5785 5778 5751 5656 5590 5564 5432 5386 5317 5271 5345 5438 5272 5093 5057 5070 4878 5012 5037 5003 4889 5153 5064 5092 5002 5011 5001 5091 5136 5182 5306 5343 5329 5331 5230 5222 5195 5181 5157 5106 5296 5295 5294 5293 5410 5421 5580 5688 5749 5851 5826 5852 5959 5860 6130 6256 6219 6179 6185 6247 6240 6168 6157 6156 6155 6095 6008 6129 6106 6037 5958 5934 5912 5817 5723 5687 5638 5622 5610 5593 5493 5399 5390 5323 5310 5305 5188 5135 4934 4901 4916 4961 4986 4985 4984 4849 4677 4673 4617 4565 4582 4549 4400 4421 4368 4516 4536 4606 4665 4760 4742 4741 4751 4658 4690 4632 4543 4465 4354 4435 4472 4505 4624 4630 4552 4671 4701 4819 4748 4799 4847 4877 4910 5019 5046 5022 4993 4820 4726 4704 4647 4737 4791 4848 4921 4982 4983 5089 5191 5268 5319 5326 5307 5341 5320 5316 5342 5431 5531 5553 5527 5498 5457 5405 5403 5356 5269 5205 5388 5358 5408 5348 5337 5270 5251 5147 5102 5090 5053 5020 4998 5054 5055 5035 5128 5221 5229 5150 4992 4865 4915 4862 4895 5000 4925 4960 5030 5036 5134 5180 5129 5282 5304 5355 5292 5393 5247 5244 5303 5354 5353 5406 5411 5387 5389 5384 5409 5540 5557 5559 5570 5624 5596 5569 5637 5623 5696 5832 5898 5994 6015 6066 6019 6054 6086 6105 6154 6195 6243 6224 6277 6298 6373 6295 6320 6336 6309 6271 6303 6337 6349 6350 6433 6472 6485 6424 6495 6471 6523 6552 6560 6622 6688 6891 6913 6937 6914 6956 6963 6883 6905 6932 6935 6946 6966 6967 6989 6986 6949 6974 6968 6959 6980 6988 6999 7014 7012 7016 7023 7028 7022 7033 7034 7038 7042 7049 7048 7051 7054 7060 7071 7072 7074 7078 7080 7070 7061 7059 7055 7053 7044 7030 6942 6912 6904 6877 6881 6873 6844 6798 6714 6713 6656 6579 6562 6587 6439 6533 6522 6492 6455 6593 6655 6737 6765 6654 6632 6624 6617 6687 6718 6811 6816 6876 6870 6840 6941 6938 6983 6981 6982 6997 7000 6993 7013 7017 7021 6945 6915 6906 6900 6884 6886 6908 6924 6920 6965 6907 6827 6880 6872 6899 6815 6826 6712 6684 6683 6613 6578 6532 6519 6520 6447 6333 6238 6018 5917 5862 5955 6153 6126 6273 6393 6392 6331 6180 6190 6330 6329 6328 6366 6466 6517 6608 6644 6609 6610 6567 6556 6491 6409 6372 6421 6518 6577 6611 6584 6612 6652 6682 6814 6858 6911 6825 6802 6869 6933 6925 6976 6973 7011 7007 7010 6910 6723 6707 6694 6681 6651 6551 6680 6777 6857 6909 6970 6995 7003 7032 7027 7052 7063 7092 7090 7086 7082 7079 7087 7096 7098 7104 7110 7123 7139 7095 7097 7099 7103 7108 7140 7145 7144 7142 7143 7141 7132 7130 7122 7119 7129 7120 7134 7131 7128 7136 7138 7137 7135 7127 7133 7121 7118 7115 7113 7114 7112 7116 7106 7117 7111 7109 7107 7105 7040 7043 7050 7041 7019 6994 7002 6998 6964 6955 6929 6940 6969 6947 6919 6879 6865 6847 6810 6807 6799 6761 6717 6643 6607 6516 6499 6505 6515 6568 6665 6662 6679 6670 6592 6606 6650 6700 6722 6721 6678 6744 6736 6760 6835 6829 6871 6902 6824 6890 6697 6642 6597 6605 6576 6537 6544 6581 6604 6690 6631 6715 6789 6854 6898 6992 6996 6958 6939 6885 6882 6895 6862 6833 6843 6795 6783 6752 6759 6742 6708 6669 6619 6555 6640 6661 6677 6663 6771 6751 6787 6851 6831 6839 6818 6740 6734 6639 6634 6641 6591 6531 6484 6460 6441 6360 6359 6405 6489 6558 6487 6451 6449 6413 6335 6310 6308 6260 6188 6142 6178 6232 6205 6131 6065 5966 5906 5965 6047 6083 6110 6146 6173 6245 6249 6324 6292 6307 6453 6513 6527 6590 6657 6647 6599 6554 6594 6660 6618 6528 6530 6549 6595 6637 6625 6626 6672 6739 6705 6731 6774 6788 6801 6837 6790 6868 7094 7093 7091 7089 7088 7081 7073 7069 7064 7062 7058 7056 6954 6861 6849 6823 6830 6809 6785 6784 6750 6728 6676 6691 6711 6741 6805 6860 6903 6856 6817 6794 6776 6727 6738 6726 6675 6699 6664 6589 6550 6534 6483 6490 6512 6538 6456 6390 6246 6204 6265 6278 6299 6340 6341 6436 6457 6481 6445 6502 6566 6529 6508 6565 6603 6548 6526 6450 6391 6358 6344 6315 6244 6116 6217 6269 6175 6170 6135 6136 6062 5979 6109 6164 6161 6212 6231 6262 6187 6124 6076 6059 6063 6064 6006 6103 6192 6316 6380 6355 6397 6452 6396 6314 6216 6300 6259 6275 6306 6319 6440 6510 6598 6601 6667 6649 6627 6602 6573 6501 6462 6511 6583 6621 6668 6716 6733 6770 6743 6793 6845 6822 6757 6724 6749 6710 6648 6629 6582 6564 6580 6659 6689 6674 6673 6730 6755 6773 6732 6781 6779 6725 6901 6918 6887 6916 6892 6928 6930 6961 6972 6960 6977 6962 6957 6943 6931 6917 6897 6863 6813 6850 6866 6841 6842 6821 6792 6834 6791 6786 6812 6838 6853 6874 6894 6893 6921 6927 6948 6978 6985 6987 7004 7020 7031 7035 7039 7037 7026 7025 7036 7085 7024 7018 7015 7006 7005 7001 6971 6936 6934 6896 6832 6780 6768 6703 6753 6767 6769 6867 6719 6704 6693 6720 6696 6633 6658 6620 6695 6692 6754 6758 6666 6628 6596 6575 6553 6539 6461 6480 6488 6479 6429 6368 6412 6395 6444 6498 6507 6546 6478 6418 6384 6352 6353 6253 6201 6266 6268 6288 6318 6323 6354 6362 6377 6430 6410 6431 6474 6536 6563 6572 6503 6427 6399 6374 6317 6304 6230 6221 6261 6229 6191 6206 6141 6097 6120 6107 6139 6171 6223 6291 6443 6543 6559 6305 6636 6547 6541 6500 6417 6435 6426 6437 6379 6369 6411 6363 6281 6280 6287 6296 6338 6394 6459 6448 6345 6378 6473 6706 6600 6557 6504 6509 6469 6416 6406 6415 6322 6361 6274 6286 6226 6197 6220 6213 6207 6227 6290 6208 6199 6144 6134 6082 6068 6046 6075 6032 6030 6016 6005 6128 6228 6248 6211 6250 6200 6145 6099 6112 6031 5960 5876 5975 5969 5984 6137 6169 6258 6321 6132 6024 5947 5948 5939 5924 5843 5788 5716 5625 5647 5715 5807 5459 5499 5458 5363 5728 5914 6034 6058 6079 6172 6118 6067 5925 6039 6045 6002 5991 6060 5933 5899 5833 5842 5762 5698 5640 5678 5515 5339 5257 5507 5237 5280 5216 5362 5108 4994 5199 5048 4778 4763 4852 4922 4804 4762 4639 4507 4643 4631 4529 4261 4386 4456 4576 4668 4764 4989 5165 5233 5170 5166 5075 5076 5224 5284 5298 5460 5413 5347 5364 5249 5171 5148 5172 5365 5435 5541 5568 5667 5626 5577 5542 5461 5462 5486 5497 5543 5612 5652 5627 5657 5754 5823 5820 5909 5998 5949 5928 5977 5970 5768 5573 5545 5575 5628 5739 5798 5737 5711 5544 5463 5314 5367 5491 5366 5315 5330 5258 5174 5206 5173 5184 5031 4932 4816 4785 4838 4909 4870 4853 4731 4686 4712 4489 4471 4463 4274 4389 4388 4462 4504 4578 4648 4739 4687 4540 4488 4439 4509 4569 4577 4616 4602 4650 4474 4340 4257 4163 4124 4233 4387 4373 4227 4101 4029 3620 3580 3492 3374 3407 3464 3335 3527 3748 3695 3741 3934 3982 4072 4088 4006 4022 3955 3900 3856 3832 3699 3731 3698 3531 3420 3410 3380 3128 3184 3109 2684 2524 2481 2327 2224 2310 2278 1389 1999 2946 3205 3227 3173 3342 3274 3369 3406 3513 3500 3566 3324 3368 3373 3405 3164 2998 2991 3095 3133 3264 3303 3708 3751 3809 3959 4039 4119 4321 4437 4255 4123 4042 3863 3805 3958 4150 4264 4191 4143 4276 4405 4470 4385 4286 4250 4330 4384 4528 4596 4618 4628 4545 4423 4635 4797 4899 4962 4930 5112 4948 4898 4830 4758 4769 4837 4835 4893 4810 4784 4765 4716 4601 4445 4441 4369 4298 4350 4383 4297 4207 4169 4148 4382 4781 4970 4709 4634 4715 4777 4714 4713 4705 4575 4535 4564 4487 4486 4574 4485 4573 4572 4484 4206 4260 4003 3895 3855 4052 4051 3463 3716 3963 4050 4296 4483 4649 4295 4205 4128 4127 4126 4049 3962 3961 3778 3960 4204 4783 4782 5074 5256 5361 5360 5279 5394 6072 5875 5781 6225 5841 5840 6820 6878 6819 6953 7009 6952 7008 6951 6950 7047 7046 7029 7057 7068 7077 7084 7067 7102 7083 7045 7126 7125 7124 7146 7101 7066 7065 7076 7100 7075 1660 1541 1515 1528 1542 1529 1516 1489 1841 1153 1154 1155 1162 1163 1148 1053 766 271 272 266 243 238 248 239 227 231 237 228 240 234 224 219 217 213 212 205 194 189 187 170 144 133 127 121 118 110 107 111 112 175 188 195 201 208 214 221 232 241 244 245 252 255 267 544 537 538 608 615 621 631 616 609 606 589 590 599 600 601 610 617 624 625 611 612 618 626 619 613 607 603 594 595 596 586 579 585 584 593 602 592 591 583 578 571 566 572 573 567 562 557 554 550 545 532 539 546 552 547 548 542 535 530 534 541 540 533 526 521 513 506 500 507 517 508 493 494 501 509 514 518 515 510 502 495 486 480 470 461 471 462 442 430 431 443 453 454 463 455 432 411 433 444 456 457 465 458 459 445 434 419 418 412 396 397 388 371 370 369 387 368 356 357 339 372 373 346 340 327 321 322 331 332 333 334 335 348 349 341 362 379 380 381 364 363 350 351 342 336 352 365 382 391 403 383 392 404 423 405 406 415 425 426 440 451 452 427 416 441 428 407 408 429 417 409 410 394 393 385 384 353 354 355 343 344 366 386 367 345 330 326 319 314 325 324 329 338 337 328 323 320 318 317 316 315 312 311 306 305 300 297 301 307 298 294 291 289 292 295 302 303 304 308 309 313 310 299 296 293 290 288 284 285 287 286 283 282 281 278 280 279 276 277 275 273 268 264 269 274 270 265 260 263 259 262 258 257 256 251 254 261 253 250 249 247 246 242 235 233 236 230 226 229 225 222 223 220 218 216 207 209 211 215 210 206 203 204 202 199 196 197 192 200 198 193 191 190 185 186 183 181 178 179 182 184 177 180 176 171 172 168 169 167 166 163 164 162 161 160 158 155 148 145 146 149 151 156 159 157 154 153 152 150 147 142 143 141 140 138 139 137 136 135 134 131 132 130 128 124 119 117 108 102 103 96 94 93 89 92 88 82 83 79 78 76 75 72 71 69 67 65 61 58 55 56 54 51 48 47 46 43 35 29 26 24 22 20 14 15 13 11 9 7 5 3 1 2 4 10 6 12 8 17 16 18 19 21 23 25 27 28 30 31 32 33 34 36 37 38 39 40 42 41 49 50 53 52 57 60 59 62 63 64 66 68 70 73 74 77 80 81 84 87 90 97 95 91 85 86 98 99 114 123 116 106 109 105 101 104 113 115 120 122 125 126 129 165 173 45 44 100 174 395 643 650 819 943 744 460 450 469 449 448 439 424 438 437 447 436 422 421 420 402 414 401 390 378 361 360 359 377 376 375 347 358 374 400 399 389 398 413 435 446 468 485 467 466 479 478 484 492 499 505 498 512 504 490 483 491 477 476 464 475 474 473 472 482 481 487 488 489 497 496 503 511 516 520 519 525 529 528 524 523 527 522 531 536 543 549 551 553 556 561 565 570 577 564 563 560 559 555 558 568 569 576 575 574 581 580 587 597 588 582 598 605 604 614 620 627 628 634 642 649 633 641 632 623 622 638 639 640 657 663 662 656 672 679 671 670 669 661 660 668 667 676 675 666 659 652 653 646 647 654 655 648 637 636 630 629 635 645 644 651 658 665 664 674 673 680 686 694 687 681 682 683 689 688 695 700 696 690 684 677 685 678 692 693 711 724 710 703 698 691 697 702 701 709 719 729 728 735 741 740 739 743 751 763 765 757 750 749 752 756 762 764 773 774 862 784 783 776 777 778 772 769 768 759 758 753 747 754 770 771 760 761 755 748 737 731 738 732 733 726 734 727 718 723 722 717 708 716 715 707 706 714 721 713 705 699 704 712 720 725 730 736 742 746 745 767 775 779 781 782 790 789 785 788 793 801 810 802 794 811 820 835 840 834 817 818 809 808 791 792 787 780 786 800 816 833 832 831 839 830 826 827 815 807 806 799 798 797 796 795 814 813 812 805 804 803 823 822 821 836 856 857 846 841 847 848 849 837 828 829 824 825 838 843 844 853 852 861 860 842 851 859 850 858 875 874 868 867 873 872 866 865 845 855 854 863 864 878 877 871 870 869 876 880 879 883 888 881 884 894 889 885 882 886 890 901 900 896 895 899 905 907 908 913 917 916 911 912 906 904 898 893 892 887 891 897 902 903 910 915 909 914 918 925 933 924 932 938 939 944 956 961 962 967 964 957 952 951 950 945 946 936 935 934 920 926 927 928 921 922 919 923 929 930 931 937 942 949 955 960 963 959 954 948 941 940 947 953 958 965 970 966 971 975 978 983 987 974 973 969 968 972 977 976 979 980 985 984 988 991 994 1004 1008 1009 1010 1011 1005 1001 1000 996 995 989 981 982 986 990 992 997 1002 1006 1012 1021 1030 1029 1020 1019 1018 1028 1033 1034 1040 1041 1045 1044 1039 1043 1051 1057 1062 1068 1064 1075 1067 1059 1060 1061 1056 1052 1050 1046 1037 1038 1032 1027 1026 1017 1016 1015 1014 1007 999 993 1003 1013 1022 1023 1024 1025 1036 1055 1049 1035 1031 1042 1048 1047 1054 1058 1066 1063 1073 1084 1085 1079 1074 1076 1086 1091 1093 1097 1096 1106 1112 1105 1099 1095 1094 1100 1104 1090 1088 1083 1081 1078 1072 1065 1069 1071 1077 1082 1092 1089 1080 1098 1101 1102 1107 1103 1108 1114 1115 1109 1110 1111 1116 1120 1119 1125 1124 1127 1123 1134 1136 1133 1132 1131 1121 1117 1118 1122 1129 1128 1130 1135 1141 1142 1143 1145 1144 1139 1137 1138 1140 1146 1147 1161 1170 1176 1171 1172 1173 1177 1184 1183 1189 1178 1186 1191 1190 1200 1204 1205 1206 1218 1230 1229 1237 1223 1209 1194 1199 1208 1210 1216 1219 1236 1235 1222 1203 1202 1193 1192 1185 1182 1188 1198 1181 1175 1168 1159 1152 1151 1158 1167 1166 1156 1157 1150 1149 1164 1165 1169 1179 1174 1180 1195 1196 1187 1197 1201 1213 1212 1211 1220 1227 1221 1232 1239 1240 1241 1231 1214 1215 1225 1226 1228 1234 1238 1233 1242 1244 1245 1255 1251 1246 1243 1256 1257 1264 1273 1279 1272 1288 1289 1295 1300 1296 1301 1310 1309 1308 1314 1318 1321 1317 1313 1307 1294 1287 1299 1298 1293 1303 1291 1290 1282 1277 1281 1286 1278 1271 1263 1250 1270 1276 1268 1275 1274 1267 1266 1261 1258 1252 1253 1259 1254 1247 1249 1248 1260 1262 1265 1269 1280 1284 1285 1292 1297 1302 1304 1311 1305 1312 1306 1316 1320 1325 1329 1336 1342 1335 1330 1331 1337 1347 1346 1345 1352 1359 1360 1373 1372 1365 1371 1380 1390 1391 1398 1392 1374 1361 1362 1366 1375 1381 1382 1394 1393 1406 1405 1404 1416 1417 1427 1426 1436 1464 1463 1495 1505 1504 1503 1494 1453 1452 1478 1479 1493 1502 1518 1532 1545 1533 1562 1561 1560 1559 1573 1590 1591 1592 1574 1593 1605 1594 1575 1563 1546 1519 1506 1507 1508 1480 1481 1465 1466 1454 1446 1467 1482 1496 1510 1521 1520 1509 1564 1565 1547 1534 1535 1536 1512 1488 1499 1513 1523 1537 1553 1578 1582 1644 1673 1692 1735 1755 1781 1791 1792 1777 1761 1750 1732 1726 1708 1694 1691 1640 1622 1639 1638 1654 1672 1690 1671 1689 1688 1707 1687 1686 1670 1653 1637 1621 1577 1576 1596 1595 1606 1620 1636 1635 1652 1669 1668 1651 1634 1619 1604 1589 1603 1618 1633 1648 1632 1617 1616 1615 1602 1587 1570 1557 1571 1588 1572 1558 1544 1543 1530 1531 1517 1501 1492 1477 1462 1476 1475 1461 1474 1490 1500 1491 1556 1569 1586 1601 1614 1585 1613 1630 1629 1662 1661 1680 1679 1697 1712 1736 1737 1713 1698 1714 1699 1681 1715 1716 1682 1663 1647 1631 1664 1683 1665 1684 1702 1701 1700 1718 1717 1738 1739 1756 1740 1719 1720 1741 1757 1770 1782 1783 1771 1772 1784 1773 1742 1703 1685 1666 1667 1649 1650 1704 1705 1706 1721 1743 1744 1745 1722 1746 1774 1786 1785 1803 1804 1805 1793 1806 1811 1807 1776 1775 1747 1723 1748 1749 1724 1725 1758 1759 1760 1766 1788 1787 1794 1808 1795 1796 1809 1813 1822 1821 1820 1812 1819 1827 1828 1854 1887 1901 1908 1914 1915 1902 1898 1892 1893 1896 1899 1903 1909 1910 1916 1921 1928 1922 1918 1917 1911 1904 1912 1905 1897 1895 1891 1894 1890 1888 1889 1883 1882 1886 1885 1879 1875 1876 1880 1884 1881 1877 1878 1873 1872 1871 1870 1865 1861 1858 1853 1852 1857 1856 1860 1864 1869 1868 1867 1866 1863 1859 1855 1849 1847 1842 1837 1843 1850 1851 1848 1844 1845 1846 1839 1838 1836 1832 1835 1831 1834 1833 1830 1829 1824 1823 1815 1814 1800 1797 1789 1779 1768 1767 1762 1752 1751 1733 1728 1727 1695 1729 1711 1709 1710 1730 1731 1734 1753 1763 1765 1778 1802 1810 1816 1817 1825 1818 1801 1798 1790 1780 1769 1754 1696 1676 1659 1675 1674 1678 1693 1677 1657 1656 1658 1645 1628 1611 1625 1643 1641 1626 1608 1607 1600 1583 1580 1567 1555 1566 1568 1598 1597 1612 1624 1627 1623 1646 1655 1642 1610 1609 1584 1581 1579 1554 1548 1526 1538 1540 1549 1550 1551 1552 1527 1539 1525 1522 1514 1524 1511 1498 1484 1486 1473 1459 1458 1448 1447 1442 1435 1441 1440 1423 1431 1430 1434 1439 1451 1472 1471 1485 1497 1487 1483 1470 1460 1457 1450 1443 1444 1432 1415 1421 1412 1414 1411 1402 1397 1386 1387 1379 1370 1378 1385 1384 1395 1396 1401 1403 1410 1420 1424 1433 1438 1445 1449 1469 1468 1456 1455 1437 1428 1429 1419 1418 1409 1400 1399 1408 1407 1383 1377 1376 1367 1368 1363 1364 1369 1357 1356 1351 1355 1354 1350 1341 1344 1349 1348 1353 1343 1340 1339 1338 1332 1326 1322 1315 1319 1324 1323 1327 1333 1334 1328 1224 1826 2006 2060 2022 1944 1976 2034 2210 2087 2053 2051 2170 2235 2259 2258 2306 2319 2293 2288 2290 2377 2421 2426 2365 2376 2375 2351 2354 2385 2383 2409 2419 2374 2360 2350 2349 2325 2317 2298 2318 2297 2287 2257 2243 2249 2256 2255 2268 2316 2307 2286 2262 2285 2266 2245 2231 2218 2220 2223 2212 2197 2182 2177 2164 2143 2127 2137 2113 2108 2105 2093 2094 2083 2073 2056 2043 2030 2031 2032 2050 2045 2075 2099 2117 2150 2136 2130 2135 2139 2147 2158 2161 2162 2186 2185 2196 2219 2232 2211 2199 2183 2173 2168 2193 2194 2221 2207 2208 2209 2187 2155 2169 2124 2114 2097 2074 2058 2048 2039 1993 1997 2005 2021 2020 2004 1995 1996 1987 1986 1985 1975 1980 1982 1984 1989 1994 1983 1974 1953 1957 1965 1962 1950 1937 1936 1943 1955 1952 1961 1973 1981 1967 1960 1966 1958 1956 1951 1941 1949 1942 1935 1927 1920 1934 1926 1933 1925 1919 1932 1940 1947 1948 1954 1979 1972 1971 1990 1978 1959 1968 1969 1970 2008 2010 2011 2013 2054 2061 2065 2084 2085 2064 2066 2059 2035 2017 2015 2012 1992 1991 2018 2027 2025 2026 2042 2049 2033 2016 2000 2002 2001 2007 2009 2014 2028 2038 2052 2077 2069 2057 2044 2041 2040 2036 2029 2024 2019 2003 2037 2072 2082 2081 2076 2096 2110 2107 2104 2109 2116 2128 2145 2163 2181 2156 2146 2132 2125 2092 2122 2133 2134 2119 2112 2103 2102 2095 2079 2080 2055 2063 2067 2078 2086 2071 2070 2062 2068 2089 2100 2101 2129 2152 2148 2126 2091 2111 2118 2106 2088 2090 2120 2131 2138 2159 2149 2160 2175 2171 2174 2179 2176 2178 2154 2142 2141 2140 2121 2144 2153 2157 2172 2190 2180 2195 2206 2200 2215 2234 2242 2238 2216 2222 2230 2241 2237 2201 2213 2246 2240 2248 2267 2274 2276 2263 2271 2247 2261 2289 2305 2308 2295 2321 2345 2333 2359 2332 2299 2303 2269 2270 2273 2292 2302 2264 2236 2217 2239 2265 2291 2277 2284 2275 2244 2229 2214 2198 2191 2192 2167 2205 2204 2203 2166 2165 2184 2202 2254 2283 2342 2313 2282 2228 2227 2253 2281 2252 2226 2225 2250 2279 2251 2280 2312 2311 2339 2369 2410 2411 2370 2340 2341 2412 2446 2413 2414 2447 2530 2577 2578 2616 2614 2626 2677 2719 2728 2775 2830 2883 2924 2960 2962 3024 3018 3049 2977 3027 3096 3169 3171 3212 3278 3332 3331 3379 3358 3339 3285 3257 3207 3196 3194 3202 3299 3248 3252 3294 3322 3446 3512 3536 3529 3598 3634 3658 3637 3691 3687 3619 3535 3424 3384 3367 3360 3375 3340 3353 3502 3604 3706 3688 3629 3752 3779 3820 3798 3723 3686 3575 3452 3381 3338 3344 3269 3267 3270 3281 3228 3197 3150 3149 3085 2981 3014 3034 3087 3142 3200 3272 3198 3131 3101 3048 3083 3134 3135 3110 3143 3136 3154 3156 3042 2967 2947 2997 2986 2982 2935 2923 2828 2824 2916 2920 2925 3023 2939 2921 2872 2827 2741 2710 2737 2829 2772 2678 2669 2633 2645 2632 2529 2576 2528 2483 2527 2482 2445 2526 2525 2647 2649 2721 2812 2854 2743 2715 2855 2919 2806 2926 2979 3030 3075 3122 3137 3152 3039 2970 2862 2823 2873 2976 3029 3089 3151 3036 3209 3214 3372 3348 3362 3343 3220 3276 3216 3277 3284 3356 3418 3494 3534 3579 3627 3674 3734 3801 3774 3735 3749 3701 3678 3613 3614 3581 3532 3439 3427 3493 3654 3677 3567 3570 3460 3383 3398 3450 3505 3432 3448 3490 3511 3538 3621 3697 3690 3669 3569 3547 3612 3501 3561 3574 3599 3667 3700 3732 3773 3827 3923 4032 4111 4112 4014 3964 3944 3850 3883 3928 3935 3980 3965 4009 4026 4010 4030 4079 4076 4081 4018 3926 3931 3948 3845 3860 3825 3842 3810 3711 3685 3668 3670 3730 3806 3828 3767 3746 3857 3932 3793 3804 3811 3824 3913 3946 3966 4046 3952 3896 4000 4017 4087 4117 4176 4242 4246 4259 4310 4324 4332 4404 4430 4448 4476 4413 4334 4224 4121 4075 4093 4095 4139 4230 4237 4232 4282 4210 4239 4262 4318 4378 4450 4452 4515 4480 4399 4429 4408 4370 4251 4209 4174 4102 4152 4155 4198 4170 4144 4129 4063 4089 4149 4197 4234 4200 4194 4228 4275 4313 4355 4352 4402 4412 4338 4500 4502 4492 4416 4365 4325 4309 4278 4299 4342 4364 4433 4458 4457 4479 4481 4511 4542 4586 4559 4544 4553 4560 4514 4521 4501 4526 4512 4491 4561 4595 4669 4703 4735 4727 4750 4814 4809 4935 4906 4947 4939 4907 4841 4826 4854 4779 4699 4674 4652 4641 4693 4732 4680 4659 4603 4608 4555 4557 4599 4593 4611 4600 4527 4523 4391 4367 4323 4371 4503 4597 4660 4681 4694 4754 4770 4773 4823 4811 4733 4695 4740 4755 4805 4771 4832 4886 4801 4728 4729 4692 4689 4612 4554 4548 4570 4584 4590 4666 4621 4708 4633 4551 4591 4609 4752 4744 4719 4696 4679 4613 4685 4766 4829 4842 4923 4956 5032 5113 5187 5200 5155 5109 5060 5099 5069 5107 5126 5185 5131 5124 5067 5043 4990 4887 4905 4954 4920 4787 4620 4567 4661 4672 4585 4587 4459 4409 4473 4519 4469 4449 4377 4374 4331 4287 4244 4236 4346 4333 4455 4410 4279 4141 4157 4038 4023 4012 3954 3945 3890 3841 3839 3864 3992 4153 4158 4339 4319 4240 4138 4107 3993 3949 3920 4001 4096 4105 4085 3929 3846 3829 3769 3753 3755 3763 3775 3927 4118 4164 4245 4247 4294 4419 4467 4306 4417 4533 4614 4619 4730 4807 4874 4873 4882 4938 4951 5010 5080 4952 4913 5073 4957 4846 4827 4775 4711 4662 4675 4825 4796 4736 4645 4562 4418 4362 4475 4571 4646 4759 4788 4885 4931 4940 4914 4803 4720 4747 4815 4946 5021 5047 5086 5006 5071 5065 5208 5235 5234 5243 5275 5324 5325 5381 5451 5592 5549 5450 5548 5380 5379 5473 5426 5420 5328 5318 5202 5133 5156 5063 5085 5084 5083 5193 5194 5309 5302 5207 5212 5291 5082 4979 4888 4856 4894 4912 5040 5081 5215 5219 5290 5346 5398 5428 5468 5526 5525 5533 5566 5583 5709 5764 5816 5845 5865 5921 5927 6025 6101 6010 6033 6080 6091 6061 6090 6114 6089 6049 5992 5938 6001 5930 5884 5835 5814 5770 5718 5692 5690 5516 5508 5436 5501 5609 5620 5701 5809 5844 5903 5950 5946 5885 5838 5772 5774 5743 5654 5648 5585 5546 5496 5485 5477 5425 5422 5424 5404 5266 5242 5334 5333 5313 5255 5220 5281 5338 5395 5332 5277 5392 5455 5500 5427 5312 5359 5418 5417 5375 5286 5225 5178 5117 5097 5052 5042 5023 5072 5138 5213 5204 5252 5232 5189 5162 5121 5068 5038 5045 4908 4911 4936 4879 4745 4734 4828 4857 4884 4927 4958 5014 4937 4978 4903 4976 4977 5009 5061 5059 5101 5154 5098 4996 4928 4869 4802 4859 4866 4881 4987 5026 5100 5145 5201 5211 5288 5287 5297 5227 5210 5203 5144 5123 5094 5190 5169 5050 5029 4955 4897 4861 4945 5039 4917 4942 4964 4965 5008 5041 5125 5164 5301 5327 5253 5250 5321 5238 5146 5111 5095 5120 5143 5159 5114 5066 5007 4919 4968 5028 5044 4997 5058 5104 4999 4918 4926 4924 4949 5025 5027 5051 5122 4967 4944 4988 4959 4890 4851 4808 4780 4795 4824 4793 4813 4831 4839 4768 4691 4651 4625 4623 4598 4663 4710 4707 4749 4706 4640 4556 4532 4510 4461 4424 4426 4442 4446 4403 4341 4269 4208 4165 4268 4312 4311 4322 4281 4380 4438 4478 4531 4579 4682 4644 4717 4718 4753 4800 4817 4871 4872 4902 4776 4812 4860 4858 4864 4880 4963 4975 5079 5115 5137 5176 5217 5231 5254 5248 5373 5466 5372 5371 5433 5518 5572 5480 5465 5370 5369 5197 5151 5119 5209 5262 5299 5160 5015 4950 4974 4941 4798 4688 4786 4794 4822 4678 4622 4605 4592 4379 4293 4327 4267 4432 4454 4390 4359 4277 4160 4034 3985 4068 4114 4066 3792 3889 3902 3848 3636 3710 3877 3884 3888 3953 4099 4258 4254 4361 4482 4351 4490 4566 4629 4664 4844 4843 4891 4943 4995 5024 5096 4973 5049 4972 5005 4971 5034 5078 5110 5130 5077 5259 5278 5260 5273 5261 5142 5175 5223 5368 5464 5489 5511 5584 5629 5691 5740 5649 5733 5767 5881 5800 5880 5972 5961 6041 6073 6160 6035 5981 6081 6029 6043 6022 5976 6011 6074 5986 5943 5872 5804 5741 5630 5594 5631 5578 5532 5487 5492 5565 5759 5825 5837 5869 5915 5929 5963 5971 6021 6100 6115 6186 6215 6177 6069 5982 5973 5997 5978 5910 5913 5870 5834 5803 5755 5724 5704 5668 5595 5558 5439 5414 5340 5311 5300 5285 5274 5177 5152 5167 5214 5192 5226 5240 5263 5276 5351 5415 5440 5476 5512 5447 5423 5441 5467 5407 5402 5429 5509 5522 5481 5530 5552 5618 5662 5641 5710 5824 5900 5944 5867 5707 5682 5660 5655 5582 5579 5521 5517 5554 5614 5495 5446 5442 5396 5391 5322 5374 5412 5437 5488 5519 5591 5670 5725 5756 5811 5777 5776 5919 5902 5926 6038 6023 5995 5985 5896 5812 5799 5871 5883 5789 5727 5699 5790 5836 5886 5964 6040 6017 6012 5974 5887 5813 5808 5782 5828 5730 5734 5735 5717 5700 5769 5806 5877 5786 5708 5659 5603 5555 5448 5357 5264 5265 5416 5563 5535 5616 5665 5663 5643 5607 5669 5775 5763 5791 5829 5920 5907 5878 5792 5783 5888 5904 6000 5916 5901 5863 5793 5794 5771 5729 5761 5726 5671 5666 5605 5597 5599 5650 5608 5576 5561 5524 5494 5456 5537 5536 5534 5444 5397 5349 5335 5289 5308 5241 5218 5186 5116 5161 5236 5350 5352 5419 5484 5430 5434 5479 5482 5523 5611 5606 5604 5653 5693 5731 5683 5742 5801 5857 5897 5993 6048 6098 6133 6147 6088 6293 6346 6388 6389 6398 6467 6482 6386 6339 6251 6138 6084 5940 5859 5868 5980 6013 6009 6119 6148 6174 6233 6267 6282 6407 6414 6493 6486 6540 6494 6458 6387 6347 6313 6325 6312 6270 6222 6279 6264 6254 6234 6198 6189 6149 6127 6176 6218 6326 6404 6385 6454 6428 6419 6535 6475 6463 6381 6446 6464 6382 6181 6235 6263 6327 6236 6182 6194 6077 6071 6003 5967 5983 6078 6165 6255 6311 6364 6420 6514 6476 6465 6438 6356 6283 6237 6284 6297 6342 6343 6375 6400 6370 6408 6371 6365 6383 6401 6477 6348 6285 6152 6209 6294 6214 6202 6301 6167 6121 6092 6051 6004 6102 6183 6163 6151 6108 6036 5893 5952 5892 5795 5846 5758 5744 5695 5613 5634 5562 5601 5633 5673 5685 5712 5684 5694 5632 5644 5672 5766 5891 5923 5922 6044 6050 5989 5988 6042 6085 6087 6117 6193 6150 6162 6026 5951 5873 5719 5680 5600 5757 5765 5642 5510 5469 5470 5449 5376 5471 5472 5377 5378 5547 5539 5745 5674 5587 5556 5658 5847 5864 5911 5861 5830 5760 5720 5721 5617 5675 5848 5889 6093 6007 5849 5787 6052 5953 5954 5874 5681 5621 5651 5602 5550 5478 5445 5502 5598 5736 5538 5635 5679 5703 5753 5827 5918 5839 5956 5957 5941 6014 6125 6122 6053 6070 6140 6257 6210 6239 6252 6357 6334 6432 6423 6506 6402 6422 6470 6496 6569 6585 6614 6630 6685 6698 6745 6762 6796 6775 6763 6686 6615 6570 6638 6653 6701 6764 6756 6778 6797 6803 6875 6836 6804 6746 6702 6635 6616 6571 6586 6561 6497 6521 6525 6545 6468 6442 6403 6332 6302 6276 6203 6104 6184 6143 6113 6094 5996 5931 5713 5714 5748 5686 5528 5560 5520 5615 5747 5722 5702 5831 5850 5810 5732 5796 5815 5802 5746 5636 5574 5588 5567 5454 5383 5382 5228 5179 5198 5336 5267 5239 5168 5004 4980 4876 4929 4981 5105 5127 5149 5163 5139 4991 5018 5087 5033 5088 5016 4966 4933 4868 4900 4834 4790 4761 4725 4670 4636 4656 4684 4581 4513 4360 4453 4496 4508 4558 4444 4406 4317 4414 4407 4344 4285 4231 4133 4108 3987 3997 4064 4098 4134 4135 4172 4182 4184 4060 4061 4070 4005 4078 4159 4216 4235 4273 4195 4166 4226 4243 4161 4142 4109 4185 4238 4307 4266 4345 4288 4270 4223 4196 4253 4271 4347 4363 4249 4292 4289 4280 4156 4167 4125 4106 4084 4073 4074 4019 4007 3988 3947 4031 4037 4011 3981 3990 3970 4008 4071 4028 4035 4004 3971 4048 4186 4173 4180 4252 4308 4376 4366 4372 4401 4497 4466 4524 4537 4550 4667 4702 4697 4738 4772 4855 4840 4845 5017 5118 5056 4953 4836 4642 4594 4568 4546 4506 4357 4097 4183 4187 4329 4337 4517 4604 4627 4792 4743 4607 4547 4349 4336 4328 4162 4080 3904 3870 3957 3989 3972 3983 3922 3917 3799 3696 3616 3676 3648 3628 3649 3703 3610 3578 3526 3590 3560 3522 3524 3559 3589 3558 3504 3478 3517 3586 3666 3772 3822 3721 3626 3533 3499 3477 3462 3411 3392 3382 3431 3476 3489 3557 3572 3563 3525 3510 3509 3444 3482 3430 3371 3316 3266 3263 3251 3245 3217 3166 3188 3226 3233 3259 3297 3314 3341 3298 3293 3328 3315 3327 3397 3401 3402 3422 3474 3455 3481 3516 3545 3607 3562 3556 3537 3498 3486 3475 3495 3497 3546 3571 3671 3647 3664 3665 3608 3587 3588 3673 3761 3754 3768 3894 3847 3893 3882 3750 3795 3819 3862 3892 3921 3833 3800 3714 3720 3715 3707 3661 3663 3682 3719 3740 3794 3849 3899 3887 3912 3869 3834 3881 3886 3950 4016 4065 4036 4067 4045 3991 3911 3897 3787 3803 3852 3941 3880 3879 3854 3808 3747 3718 3757 3689 3684 3652 3630 3543 3456 3435 3404 3421 3434 3415 3396 3399 3403 3417 3503 3523 3593 3632 3646 3702 3729 3744 3786 3759 3807 3907 3858 3802 3835 3868 3969 3885 3876 3785 3739 3737 3766 3830 3762 3784 3817 3783 3742 3878 3867 3813 3903 3705 3712 3644 3662 3643 3771 3760 3600 3582 3540 3470 3447 3408 3387 3307 3295 3286 3238 3223 3230 3237 3178 3177 3146 3114 3088 3053 3037 3076 3025 3002 2990 2969 2929 2897 2860 2832 2826 2896 2936 2895 2879 2859 2856 2894 2995 2983 3052 3078 3051 3113 3176 3306 3346 3305 3258 3325 3236 3229 3193 3235 3261 3304 3365 3363 3361 3386 3400 3412 3440 3467 3454 3466 3573 3548 3596 3639 3679 3727 3635 3638 3717 3726 3745 3901 3891 3815 3780 3776 3781 3909 3816 3812 3797 3733 3777 3821 3865 3939 3937 3942 3818 3782 3725 3659 3625 3640 3597 3681 3738 3657 3622 3520 3521 3468 3433 3426 3469 3461 3724 3641 3660 3642 3609 3633 3728 3713 3764 3770 3831 3843 3743 3910 3905 3844 4058 4083 4147 4146 4140 4086 4077 4104 4120 4154 4190 4213 4214 4225 4229 4326 4301 4215 4291 4302 4396 4353 4343 4395 4539 4580 4615 4626 4653 4654 4541 4522 4494 4468 
