FILE: ei8246.tsp
Cities: 8246
Runs: 100

Tabu length: 200
Max iterations: 30000
Neighborhood size: 50000
Stop (no improvement): 10000

Best cost: 227357
Average cost: 228941
Execution time: 30535.4 seconds

Best route:
3187 3161 3158 3171 3177 3151 3184 3261 3268 3276 3298 3281 3291 3293 3317 3327 3368 3365 3453 3498 3493 3452 3339 3310 3260 3305 3243 3206 3188 3135 3168 3192 3295 3306 3329 3269 3265 3186 3119 3155 3121 3109 3169 3247 3228 3283 3405 3529 3559 3496 3440 3422 3478 3374 3406 3444 3501 3528 3586 3623 3737 3781 3834 3803 3890 3931 3873 3802 3719 3685 3677 3733 3887 3908 3964 3991 4013 4124 4140 4048 4022 4075 4095 4183 4222 4195 4209 4336 4280 4162 4215 4269 4310 4335 4492 4386 4342 4324 4326 4470 4582 4594 4576 4590 4541 4490 4439 4379 4394 4322 4250 4220 4178 4115 4040 3965 3910 3870 3829 3824 3769 3588 3577 3631 3675 3757 3792 3859 3816 3835 3902 4016 4042 4070 4138 4201 4204 4156 4179 4258 4287 4366 4412 4430 4404 4527 4577 4691 4725 4740 4774 4857 4900 4847 4767 4708 4716 4669 4746 4682 4550 4455 4585 4628 4714 4636 4686 4812 4854 4881 4970 5029 4912 4870 4906 4983 5048 5022 4990 5014 4999 5040 5086 5069 5149 5262 5352 5442 5436 5407 5253 5371 5489 5536 5556 5677 5704 5652 5742 5743 5783 5806 5823 5843 5885 5938 5880 5842 5815 5760 5718 5703 5674 5575 5535 5546 5529 5524 5570 5587 5522 5486 5412 5325 5242 5405 5460 5306 5241 5203 5231 5157 5109 5045 5038 5032 4951 4930 4863 4901 4943 5013 5071 5097 5117 5056 4954 4883 4836 4707 4654 4685 4790 4833 4894 4911 5084 5020 5034 5067 5159 5252 5346 5310 5294 5343 5356 5445 5435 5419 5315 5248 5160 5106 5036 5011 4935 4861 4785 4692 4571 4526 4515 4480 4451 4399 4323 4233 4303 4382 4385 4448 4499 4573 4597 4624 4652 4715 4698 4875 4817 4806 4779 4676 4584 4615 4718 4763 4739 4757 4662 4618 4668 4600 4554 4472 4468 4387 4438 4511 4498 4377 4311 4298 4259 4197 4114 4074 4130 4175 4068 4100 4120 4168 4163 4245 4127 4090 3976 3968 4039 4064 3972 3930 3917 3857 3825 3778 3853 3811 3738 3739 3702 3625 3579 3657 3714 3736 3712 3646 3711 3755 3788 3845 3808 3815 3821 3876 3922 3881 3912 3940 3956 4035 4021 3971 3941 3785 3797 3852 3849 3871 3982 3987 3970 4038 4078 4119 4112 4189 4265 4126 4104 4077 4011 3988 3958 3938 3928 3880 3842 3800 3780 3740 3701 3676 3653 3650 3705 3735 3674 3612 3564 3621 3656 3649 3671 3758 3828 3855 3934 3962 4030 4032 4111 4202 4155 4015 3977 3945 3943 3916 3883 3856 3836 3756 3796 3787 3713 3695 3684 3749 3817 3879 4014 3979 3999 4037 4117 4149 4232 4253 4211 4193 4067 3952 3905 3898 3841 3820 3771 3720 3694 3718 3667 3536 3512 3509 3555 3585 3599 3655 3637 3610 3593 3573 3546 3519 3482 3434 3403 3469 3426 3399 3341 3594 3513 3462 3446 3391 3342 3319 3315 3303 3271 3233 3232 3180 3191 3242 3244 3302 3278 3146 3204 3259 3313 3340 3412 3401 3380 3417 3566 3600 3644 3630 3541 3467 3441 3505 3524 3492 3596 3662 3700 3752 3767 3798 3897 3980 4002 4049 4034 4084 4102 4029 3985 3984 4026 3966 3957 4006 4092 4113 4148 4244 4255 4228 4285 4348 4464 4458 4420 4369 4277 4351 4327 4289 4363 4474 4491 4596 4723 4788 4733 4798 4878 4932 5015 5052 5085 5101 5021 4964 4916 4773 4664 4635 4583 4514 4566 4666 4800 4799 4858 4869 4926 5083 5150 5208 5281 5226 5260 5410 5417 5464 5502 5477 5484 5531 5606 5607 5530 5596 5554 5507 5447 5362 5338 5314 5290 5209 5201 5098 5074 5182 5062 5012 4965 4840 4820 4782 4832 4913 4918 4950 4864 4837 4811 4755 4648 4575 4525 4523 4613 4564 4706 4730 4650 4510 4593 4609 4705 4721 4603 4533 4489 4538 4467 4454 4373 4313 4344 4339 4411 4408 4384 4362 4290 4254 4173 4212 4296 4314 4381 4459 4509 4502 4393 4304 4354 4370 4291 4392 4476 4493 4547 4689 4724 4754 4816 4814 4827 4868 4940 5016 5009 4953 5079 5194 5161 5213 5256 5334 5320 5286 5227 5339 5400 5420 5461 5448 5398 5387 5246 5191 5139 5092 4991 5076 5175 5403 5282 5395 5438 5482 5506 5549 5592 5594 5624 5645 5671 5739 5641 5696 5620 5555 5523 5628 5738 5779 5801 5782 5805 5903 5909 5960 5972 6060 6034 6020 6097 6098 6155 6152 6221 6156 6132 6154 6189 6307 6434 6464 6544 6616 6703 6664 6640 6601 6553 6481 6365 6347 6305 6373 6342 6382 6408 6493 6556 6800 6748 6692 6679 6716 6656 6581 6485 6470 6418 6403 6316 6253 6289 6323 6286 6183 6147 6026 5946 5926 5860 5795 5819 5764 5818 5864 5904 5944 5994 5971 6033 6089 6146 6198 6212 6131 6185 6246 6302 6381 6386 6410 6447 6467 6589 6629 6678 6734 6835 6806 6908 6939 7012 7085 7095 7111 7067 7079 7127 7020 6968 6926 6890 6930 6988 6984 7016 6914 6774 6738 6605 6543 6495 6423 6499 6567 6648 6700 6632 6709 6741 6836 6929 6891 6910 6953 6997 6986 7010 6941 6911 6883 6828 6919 6964 6978 7004 7103 7062 7096 7123 7077 7142 7191 7150 7135 7168 7122 7057 7064 7166 7205 7204 7240 7321 7336 7320 7349 7292 7236 7249 7269 7268 7316 7267 7261 7241 7202 7182 7220 7163 7063 7102 7138 7073 7034 6994 6963 6937 6962 6904 6993 6966 6985 6938 6942 6838 6809 6754 6647 6606 6497 6314 6322 6520 6471 6430 6539 6512 6402 6284 6159 6058 6050 6077 5983 5941 5921 5908 5923 5902 5841 5838 5863 5834 5797 5735 5702 5723 5722 5759 5758 5814 5862 5867 5869 5800 5737 5676 5646 5699 5756 5736 5672 5603 5569 5525 5534 5528 5509 5504 5479 5465 5459 5446 5440 5422 5414 5374 5386 5284 5255 5295 5202 5285 5363 5308 5423 5463 5318 5296 5266 5307 5358 5333 5302 5458 5319 5270 5155 5138 4939 4946 5078 5108 5174 5216 5141 5176 5197 5238 5345 5265 5126 5215 5181 5245 5147 5133 5164 5143 5073 5003 4974 4910 4942 4914 4874 4905 4973 5004 5065 5005 4961 4849 4844 4789 4720 4793 4822 4917 4949 4958 5018 5068 5055 4963 4882 4888 4743 4762 4697 4574 4559 4702 4748 4797 4841 4895 4848 4738 4819 4909 4947 5008 5019 4985 5037 5107 5212 5240 5349 5350 5434 5437 5418 5384 5342 5254 5211 5135 4887 4761 4732 4673 4610 4565 4568 4667 4722 4792 4784 4826 4842 4753 4696 4679 4630 4546 4485 4477 4431 4407 4343 4274 4236 4166 4194 4329 4355 4433 4445 4300 4332 4401 4410 4471 4529 4424 4391 4453 4425 4440 4132 3858 3710 3664 3463 3607 3663 3661 3823 3775 3746 3753 3848 3884 3913 3921 3889 3961 3998 3954 3854 3810 3774 3666 3651 3643 3554 3510 3429 3375 3318 3272 3362 3511 3592 3659 3682 3608 3578 3408 3459 3471 3485 3547 3576 3349 3286 3357 3354 3370 3270 3398 3449 3384 3321 3174 3136 3115 3098 3082 3049 3058 3052 3160 3132 3231 3178 3042 3029 3075 3103 3076 3157 3220 3274 3320 3250 3284 3198 3219 3124 3068 3100 3064 3039 3125 3144 3275 3253 3234 3311 3345 3410 3497 3447 3494 3534 3563 3627 3654 3624 3550 3618 3672 3732 3765 3874 3795 3784 3770 3681 3689 3639 3540 3481 3443 3411 3358 3437 3489 3508 3525 3591 3748 3782 3875 3878 3953 4008 4059 4171 4125 4080 4007 3903 3997 4054 4122 4010 3942 3907 3937 3989 4023 4096 4147 4165 4199 4206 4246 4288 4466 4672 4778 5131 5235 5251 5300 5416 5421 5444 5457 5480 5503 5505 5483 5512 5510 5548 5576 5627 5601 5595 5571 5553 5675 5625 5589 5568 5533 5532 5513 5466 5443 5462 5500 5527 5552 5593 5551 5591 5621 5626 5619 5598 5622 5639 5695 5668 5643 5648 5670 5698 5717 5700 5734 5720 5701 5697 5642 5597 5602 5644 5673 5719 5721 5740 5757 5780 5835 5888 5884 5861 5881 5820 5816 5822 5840 5859 5883 5866 5839 5836 5817 5803 5799 5781 5761 5763 5777 5778 5741 5762 5793 5821 5837 5868 5887 5882 5907 5919 5922 5928 5924 5940 5942 5939 5965 5970 6006 6047 6016 6021 6001 5964 5968 5966 5993 5990 6000 6398 6482 6379 6320 6333 6319 6395 6466 6441 6419 6380 6454 6393 6424 6554 6491 6586 6667 6580 6579 6608 6685 6722 6767 6718 6761 6840 6859 6681 6635 6609 6534 6593 6494 6385 6277 6187 6157 6130 6122 6078 6051 5997 5961 5945 5967 6002 6008 6125 6153 6274 6330 6400 6498 6535 6509 6594 6683 6671 6611 6550 6545 6420 6271 6321 6377 6295 6463 6549 6628 6555 6565 6457 6401 6436 6360 6197 6206 6263 6275 6182 6120 6145 6205 6170 6144 6086 5996 5943 5962 6032 6092 6150 6188 6220 6282 6222 6369 6440 6390 6451 6505 6519 6541 6636 6702 6725 6672 6612 6662 6783 6849 6889 6776 6882 6907 6947 7019 6989 6967 7089 7040 7052 6996 7022 7118 7152 7104 7158 7195 7215 7275 7258 7273 7327 7306 7291 7328 7342 7353 7369 7382 7414 7431 7425 7397 7444 7465 7459 7463 7489 7480 7453 7458 7447 7426 7363 7399 7386 7427 7445 7455 7467 7478 7486 7493 7483 7454 7438 7429 7345 7402 7377 7406 7375 7359 7339 7303 7281 7237 7188 7143 7179 7115 7092 6981 6845 6874 6912 6878 6921 6987 7009 6973 6819 6880 6814 6765 6732 6813 6807 6770 6684 6704 6630 6595 6563 6557 6488 6432 6374 6443 6306 6309 6337 6223 6171 6082 6004 5963 5929 6009 6035 6099 6168 6237 6324 6273 6252 6349 6387 6285 6242 6201 6100 6036 5973 5949 5948 5947 5910 5870 5889 5871 5872 5825 5824 5744 5724 5678 5653 5629 5630 5537 5490 5468 5449 5491 5557 5631 5679 5745 5784 5746 5725 5705 5706 5680 5654 5608 5578 5492 5450 5426 5372 5303 5179 5381 5427 5344 5353 5311 5271 5263 5169 5105 5042 4959 4898 4769 4620 4569 4850 4920 4829 4801 4735 4775 4889 5026 4982 4986 5082 5119 5162 5258 5268 5360 5388 5335 5292 5217 5017 4971 5144 5142 5093 5064 5050 4968 4877 4872 4742 4663 4655 4591 4544 4418 4524 4486 4535 4562 4587 4665 4824 4802 4809 4736 4606 4551 4517 4462 4405 4422 4501 4536 4522 4639 4595 4680 4530 4497 4478 4442 4437 4353 4320 4247 4229 4203 4150 4251 4270 4281 4350 4389 4504 4419 4415 4473 4512 4552 4604 4549 4505 4479 4402 4432 4449 4413 4338 4308 4352 4395 4436 4416 4365 4316 4279 4262 4257 4200 4182 4097 4144 4151 4142 4053 4058 3927 3827 3768 3747 3967 4057 4071 4210 4180 4368 4361 4367 4218 4146 4106 4107 4129 4033 3996 3885 3866 3939 3946 3812 3772 3620 3495 3393 3344 3484 3516 3647 3693 3723 3960 4025 4061 4043 4019 4024 4069 4118 4139 4213 4297 4278 4224 4266 4426 4441 4483 4428 4364 4340 4318 4360 4293 4136 4072 4105 4047 4017 3963 3822 3865 3731 3683 3552 3626 3483 3381 3323 3379 3289 3361 3402 3472 3487 3539 3520 3475 3457 3407 3450 3543 3553 3615 3750 3730 3773 3843 3830 3838 4052 4083 4188 4235 4243 4306 4396 4427 4383 4333 4312 4268 4240 4134 4192 4260 4358 4380 4346 4388 4443 4482 4503 4578 4601 4539 4465 4507 4661 4709 4756 4828 4956 5000 5049 5094 5172 5080 4980 5010 5115 5090 5081 5070 4975 5006 4896 4893 4903 4838 4759 4703 4645 4687 4625 4540 4461 4414 4375 4494 4543 4643 4711 4700 4677 4611 4586 4772 4771 4823 4907 4952 4966 4995 5053 5035 5096 4981 5041 5025 5165 5321 5425 5336 5273 5404 5297 5158 5193 5132 5189 5220 5326 5377 5399 5357 5223 5309 5243 5257 5122 5059 5134 5063 4992 4927 4899 4845 4751 4729 4764 4741 4688 4629 4598 4508 4434 4435 4356 4292 4267 4223 4123 4181 4174 4217 4137 4062 4020 4009 3993 4060 3918 3891 3948 3951 3894 3805 3776 3741 3680 3670 3759 3839 3833 3893 3837 3899 3923 3955 4004 4041 4055 4003 3929 3861 3804 3766 3734 3707 3668 3761 3783 3726 3690 3641 3514 3433 3419 3382 3507 3635 3568 3556 3597 3634 3613 3581 3745 3728 3692 3691 3595 3518 3477 3490 3479 3531 3486 3445 3400 3428 3360 3325 3279 3277 3328 3299 3238 3222 3221 3179 3141 3123 3020 2994 2965 3096 3237 3351 3189 3181 3159 3070 3056 2963 2888 2872 2906 2869 2874 2915 2952 2993 3086 3106 3059 3087 3118 3133 3116 3061 3055 2976 2921 2908 2989 2919 2820 2891 2893 2884 2860 2833 2754 2700 2692 2642 2586 2624 2722 2801 2784 2778 2619 2508 2414 2382 2265 2293 2344 2246 2211 2143 2100 2021 2041 2045 1949 1964 2034 2035 2040 1982 1993 2049 2081 2036 1984 1916 1897 1773 1750 1812 1738 1787 1807 1777 1840 1793 1893 2002 2121 2008 1988 1930 1759 1421 1439 1448 1469 1502 1397 1381 1411 1396 1253 1181 1118 1043 1020 1011 996 938 939 997 953 978 919 957 1032 1081 1217 1265 1318 1299 1317 1330 1250 1272 1238 1115 1059 1096 1035 1109 1062 1130 1167 1201 1243 1382 1305 1203 1184 1016 955 907 936 982 855 836 777 738 816 801 812 860 857 903 967 1069 1102 1174 1169 1196 1072 1127 1154 1241 1254 1212 1170 1152 1078 1066 986 949 1044 1070 1086 1213 1306 1346 1470 1513 1332 1228 1269 1376 1378 1406 1510 1590 1687 1774 1981 2005 1821 1778 1804 1770 1829 1803 1653 1670 1706 1486 1494 1472 1386 1485 1331 1389 1722 1726 1709 1732 1737 1772 1796 1788 1824 1860 1918 1950 1885 1910 1975 1994 1983 1937 1873 1811 1802 1719 1607 1660 1761 1721 1681 1678 1715 1868 1865 1876 1961 1953 1990 1958 2051 2175 2080 2106 2203 2303 2321 2431 2473 2617 2616 2635 2571 2454 2330 2297 2274 2160 2127 2170 2345 2380 2417 2392 2429 2486 2534 2525 2481 2445 2365 2427 2371 2270 2147 2132 2183 2241 2305 2326 2226 2134 2055 2050 1874 1908 1891 1919 1808 1730 1801 1716 1760 1854 1836 1892 1931 2150 2222 2242 2287 2412 2440 2456 2558 2535 2452 2411 2318 2272 2251 2149 2125 2006 1943 2037 2057 2136 2069 2137 2156 2188 2216 2304 2283 2229 2212 2252 2312 2376 2423 2468 2496 2488 2607 2629 2592 2649 2625 2544 2546 2531 2578 2631 2634 2666 2687 2660 2622 2638 2710 2755 2739 2832 2866 2883 2841 2773 2757 2704 2787 2864 2880 2734 2670 2640 2626 2597 2573 2502 2461 2547 2518 2568 2526 2458 2420 2393 2356 2296 2333 2339 2446 2475 2576 2603 2639 2636 2699 2728 2695 2664 2552 2507 2441 2316 2320 2362 2374 2381 2398 2442 2434 2545 2579 2644 2681 2691 2747 2775 2708 2737 2769 2822 2836 2786 2877 2928 2982 2981 3101 3150 3143 3072 3127 3205 3226 3194 3200 3122 3215 3199 3297 3312 3254 3207 3120 2970 2988 3097 3054 3021 3046 3091 3012 3084 3113 3079 3031 3063 3114 3078 2990 2942 2943 2936 2868 2870 2903 2929 2909 2882 2894 2849 2803 2789 2762 2726 2802 2821 2764 2727 2694 2795 2768 2760 2720 2701 2654 2596 2484 2554 2443 2548 2575 2590 2759 2825 2834 2848 2932 2851 2947 3040 3111 3201 3208 3129 3088 3038 2978 2923 2964 3077 3154 3130 3173 3210 3240 3326 3288 3292 3331 3416 3414 3598 3777 3786 3895 3860 3995 4045 4091 4141 4087 4027 4018 3992 3990 3959 3935 3919 3869 3826 3789 3764 3703 3727 3567 3458 3532 3435 3359 3287 3257 3213 3262 3294 3558 3609 3423 3383 3338 3223 3363 3394 3533 3678 3348 3418 3439 3521 3708 3696 3636 3604 3535 3499 3461 3371 3350 3335 3420 3544 3589 3611 3562 3526 3590 3632 3699 3754 4046 4157 4103 3986 3914 3844 3762 3686 3743 3806 3888 3872 3867 3886 3950 4000 4031 4108 4133 4121 4101 4085 4186 4248 4264 4271 4302 4452 4400 4328 4301 4359 4371 4423 4450 4495 4560 4647 4710 4693 4602 4588 4520 4487 4558 4641 4656 4787 4884 4737 4846 4879 5039 5249 5214 5406 5280 5125 5100 5033 5195 5313 5382 5401 5431 5373 5221 5196 5123 5066 5129 5156 5047 5002 4934 4978 4892 4873 4921 4859 4795 4712 4681 4642 4607 4567 4446 4616 4695 4599 4506 4378 4429 4460 4456 4397 4372 4305 4374 4299 4249 4208 4158 4256 4321 4345 4444 4627 4581 4519 4556 4637 4694 4747 4783 4731 4768 4908 5001 4825 4744 4683 4621 4592 4542 4518 4463 4484 4421 4276 4237 4159 4135 4076 4028 4005 4088 4098 4081 4143 4214 4241 4325 4319 4252 4315 3974 3973 3909 3807 3949 3901 3813 3717 3751 3793 3862 3900 3936 3947 4063 3944 3978 3932 3892 3840 3801 3729 3575 3601 3542 3515 3530 3364 3386 3448 3470 3488 3430 3343 3409 3616 3679 3704 3715 3648 3606 3571 3504 3468 3491 3455 3503 3560 3476 3451 3395 3502 3622 3404 3372 3266 3369 3224 3164 3170 3090 3067 2995 3002 2933 3027 3036 3117 3081 3006 2957 2983 2999 3152 3139 3172 3307 3353 3388 3385 3239 3267 3252 3304 3235 3190 3140 3050 3131 3218 3308 3322 3355 3431 3537 3557 3628 3721 3760 3818 3790 3799 3933 3983 3915 3904 3924 3975 4086 4116 4079 3994 3906 3863 3791 3744 3850 4001 4109 4093 4167 4234 4169 4154 4196 4242 4205 4261 4331 4357 4390 4447 4409 4295 4286 4273 4226 4170 4221 4282 4238 4187 4110 4082 4066 4056 4172 4145 4230 4330 4272 4376 4537 4674 4713 4749 4807 4821 4885 4937 4957 4922 5031 4989 4928 4855 4866 4777 4572 4623 4555 4548 4488 4398 4347 4317 4309 4307 4403 4406 4417 4475 4516 4496 4534 4513 4545 4570 4622 4752 4678 4589 4649 4612 4699 4651 4614 4557 4481 4469 4457 4521 4531 4528 4500 4349 4341 4337 4553 4532 4561 4605 4657 4734 4804 4818 4791 4890 4902 4843 4780 4813 4860 4891 5061 5089 5153 5190 5275 5173 5099 5023 4996 4976 4987 5046 5072 5075 5110 5237 5324 5366 5229 5152 5177 5145 5058 4938 4962 5007 5188 5210 5151 5474 5498 5516 5361 5316 5293 5323 5369 5228 5198 5332 5397 5433 5517 5540 5565 5692 5691 5635 5712 5730 5751 5713 5752 5789 5753 5772 5731 5636 5581 5518 5541 5499 5475 5380 5359 5301 5272 5230 5205 5187 5128 5264 5276 5234 5267 5171 5136 5103 5146 5186 5261 5232 5317 5330 5354 5396 5455 5392 5204 5185 5163 5130 5167 5111 5095 5178 5219 5225 5244 5291 5364 5393 5355 5367 5383 5206 5277 5328 5299 5351 5376 5340 5322 5192 5140 5154 5112 5104 5051 5030 4945 4897 4944 4967 4948 4977 4856 4876 4886 4830 4867 4933 4915 4862 4805 4750 4726 4704 4831 4758 4670 4658 4728 4852 4765 4727 4690 4675 4815 4834 4923 4955 4997 5278 5394 5370 5543 5520 5585 5584 5617 5775 5791 5833 5856 5918 5937 5959 5989 6044 6088 6025 5987 5958 6018 6123 6375 6449 6446 6461 6489 6561 6607 6627 6659 6715 6775 6802 6792 6901 6960 7037 7081 7201 7203 7165 7133 7078 7069 7046 7032 7018 7006 6936 6872 6885 6965 6957 6879 6825 6697 6634 6596 6566 6525 6435 6383 6328 6340 6158 6087 6079 6045 6007 6052 6061 6094 6236 6262 6346 6426 6490 6341 6287 6225 6166 6235 6163 6141 6116 6110 6049 6029 6003 5979 5899 5980 5991 5969 5992 5981 5936 5855 5878 5900 5854 5832 5853 5790 5754 5774 5755 5733 5567 5566 5616 5583 5519 5476 5542 5582 5637 5664 5714 5732 5693 5638 5715 5716 5773 5831 5852 5851 5813 5850 5915 5898 5812 5849 5935 6015 6041 6071 6107 6040 6194 6303 6348 6244 6260 6217 6301 6335 6460 6600 6583 6638 6655 6682 6757 6675 6760 6778 6720 6617 6639 6513 6450 6409 6615 6730 6750 6796 6854 6922 6788 6858 6923 6958 6975 6951 6976 6915 6862 6934 6946 6961 6818 6815 6857 6881 6856 6917 7094 7180 7149 7110 7068 7151 7164 7187 7239 7259 7324 7317 7282 7216 7200 7113 7044 6931 6943 6950 7031 7050 7091 7120 7245 7243 7374 7326 7360 7407 7380 7332 7325 7313 7229 7228 7250 7176 7148 7066 7116 7101 6927 6824 6843 6897 6752 6708 6744 6799 6772 6866 6905 6992 7033 7141 7221 7184 7145 7021 6876 6791 6733 6827 6731 6837 6763 6719 6613 6530 6413 6326 6311 6298 6216 6255 6372 6428 6515 6483 6358 6294 6179 6070 5977 5897 5914 5934 5976 5896 5876 5847 5788 5727 5687 5661 5662 5688 5768 5769 5770 5830 5810 5848 5877 5811 5771 5729 5711 5690 5728 5689 5663 5634 5615 5564 5563 5497 5454 5391 5348 5368 5247 5116 5121 5148 5057 5102 5170 5166 5200 5269 5390 5432 5402 5453 5473 5562 5515 5496 5561 5660 5659 5710 5726 5750 5767 5809 5846 5895 5954 6014 6069 6106 6177 6224 6233 6288 6427 6511 6529 6462 6352 6269 6245 6181 6105 6068 6139 6228 6259 6540 6663 6711 6794 6823 6756 6686 6577 6523 6468 6406 6417 6475 6674 6726 6839 6896 6861 6954 6977 7045 7043 7036 7100 7132 7209 7185 7167 7161 7136 7107 7070 7105 7156 7128 7042 6982 6956 6933 6895 6831 6780 6822 6728 6705 6661 6645 6602 6673 6619 6538 6478 6429 6318 6356 6439 6405 6514 6574 6625 6573 6459 6437 6334 6254 6164 6137 6138 6231 6308 6378 6444 6362 6251 6213 6304 6266 6209 6215 6175 6039 6067 5975 5974 5894 5829 5808 5875 5893 5933 6013 5953 5913 5892 5844 5827 5845 5807 5828 5785 5749 5786 5766 5787 5709 5708 5684 5611 5580 5559 5471 5470 5389 5408 5409 5365 5287 5236 5183 5233 5279 5288 5327 5337 5375 5452 5493 5494 5612 5613 5633 5685 5686 5614 5560 5539 5538 5495 5472 5430 5413 5347 5385 5298 5207 5218 5060 5113 5124 5120 4979 4919 4794 4766 4865 4717 4786 4803 4851 4904 4960 4969 5137 5127 5054 5088 5024 4993 4936 4871 4776 4880 4984 5027 5184 5274 5304 5224 5289 5329 5378 5429 5428 5415 5451 5469 5514 5558 5609 5632 5655 5747 5681 5707 5682 5656 5657 5610 5579 5658 5748 5683 5765 5826 5874 5891 5912 5932 5951 5890 5931 5873 5911 5930 5950 6010 6101 6063 6102 6203 6268 6313 6452 6522 6518 6599 6584 6687 6737 6784 6803 6736 6701 6649 6717 6572 6547 6458 6300 6474 6603 6527 6473 6502 6472 6367 6219 6264 6174 6325 6173 6241 6315 6350 6388 6412 6357 6265 6207 6134 6133 6161 6257 6351 6361 6536 6568 6531 6507 6570 6623 6729 6665 6817 6742 6653 6598 6614 6618 6657 6698 6830 6920 7001 6913 6790 6787 6749 6820 6832 6925 6869 6777 6669 6537 6597 6637 6766 6798 6721 6658 6693 6699 6735 6771 6892 6944 6903 6855 6781 6801 6841 6900 6916 7074 7125 7130 7154 7041 7026 7008 7027 7059 7090 7035 7002 6969 6860 6871 6833 6821 6805 6863 6850 6887 6894 6743 6680 6644 6569 6641 6560 6528 6521 6404 6510 6633 6643 6751 6691 6755 6762 6782 6724 6779 6811 6893 6875 6865 6945 6932 6884 6829 6793 6739 6688 6587 6500 6479 6421 6278 6232 6211 6202 6135 6064 6037 6011 6038 6136 6190 6249 6345 6297 6363 6414 6453 6532 6642 6624 6582 6496 6364 6310 6243 6178 6191 6103 6065 6012 5952 6104 6176 6256 6331 6291 6240 6214 6066 6272 6371 6338 6370 6425 6480 6442 6533 6506 6651 6689 6666 6714 6727 6853 6928 6974 6999 7014 7056 7024 6990 7054 7093 7140 7169 7144 7114 7108 7153 7126 6998 7060 7029 7080 7119 7131 7155 7183 7274 7263 7294 7337 7378 7389 7442 7457 7383 7347 7334 7365 7338 7357 7257 7218 7193 7212 7198 7226 7367 7372 7354 7422 7449 7476 7481 7468 7474 7496 7497 7484 7441 7436 7433 7428 7419 7404 7362 7302 7298 7266 7217 7207 7288 7309 7352 7411 7443 7456 7450 7432 7387 7343 7371 7430 7471 7475 7477 7490 7494 7501 7506 7511 7518 7509 7513 7517 7521 7529 7530 7527 7524 7519 7502 7503 7510 7523 7520 7525 7531 7534 7538 7540 7545 7547 7528 7532 7535 7533 7522 7526 7559 7569 7573 7590 7584 7601 7572 7566 7580 7570 7564 7562 7560 7548 7553 7556 7551 7542 7549 7558 7606 7616 7642 7628 7615 7600 7610 7624 7657 7651 7646 7626 7640 7647 7674 7680 7670 7648 7623 7614 7603 7612 7591 7571 7565 7594 7608 7619 7636 7673 7686 7692 7704 7730 7750 7735 7727 7789 7792 7823 7820 7791 7788 7804 7831 7851 7817 7776 7740 7795 7775 7766 7765 7739 7676 7663 7638 7637 7644 7621 7602 7595 7605 7630 7652 7667 7678 7682 7685 7653 7618 7607 7541 7552 7536 7537 7543 7546 7550 7544 7539 7555 7554 7579 7691 7688 7684 7705 7718 7746 7755 7767 7754 7763 7741 7780 7762 7753 7732 7726 7713 7701 7699 7717 7721 7736 7761 7751 7748 7731 7758 7747 7729 7707 7711 7712 7725 7744 7752 7720 7733 7742 7770 7782 7801 7808 7803 7813 7806 7790 7781 7773 7784 7811 7816 7834 7838 7845 7854 7860 7883 7889 7897 7879 7856 7882 7899 7894 7888 7874 7871 7864 7855 7832 7849 7835 7843 7840 7826 7814 7802 7777 7787 7805 7815 7839 7837 7836 7853 7870 7863 7865 7903 7902 7910 7906 7891 7911 7893 7909 7917 7927 7942 7925 7946 7954 7941 7948 7944 7931 7928 7922 7912 7875 7878 7857 7858 7885 7876 7887 7913 7937 7918 7907 7904 7929 7940 7953 7962 7958 7973 7990 8011 8013 8052 8097 8100 8113 8079 8064 8043 8028 8007 8002 7975 7968 7963 7977 7992 7999 8015 8024 8009 8006 7993 7976 7959 7967 7978 7991 8016 8022 8004 7997 8001 7988 7986 8003 8027 8041 8063 8090 8101 8094 8083 8050 8049 8060 8104 8119 8132 8102 8110 8139 8166 8182 8179 8165 8157 8136 8155 8173 8181 8194 8213 8223 8227 8229 8230 8226 8222 8214 8209 8188 8167 8160 8148 8154 8135 8116 8109 8087 8085 8036 8017 8005 8021 8025 8038 8042 8062 8069 8092 8075 8061 8080 8108 8117 8089 8107 8122 8149 8152 8142 8159 8168 8184 8192 8204 8185 8205 8180 8169 8162 8170 8171 8186 8189 8198 8224 8228 8233 8238 8235 8234 8217 8207 8197 8187 8176 8219 8221 8216 8212 8225 8231 8232 8239 8237 8236 8240 8241 8244 8243 8242 8245 8246 8220 8218 8202 8195 8200 8210 8211 8199 8215 8203 8190 8175 8156 8150 8143 8147 8133 8191 8208 8206 8196 8183 8161 8144 8129 8120 8128 8145 8121 8123 8099 8065 8037 8033 8068 8081 8124 8137 8163 8174 8178 8177 8172 8158 8164 8151 8138 8114 8112 8103 8118 8140 8127 8146 8106 8096 8058 8076 8084 8088 8072 8056 8044 8030 8031 8039 8054 8059 8055 8071 8070 8093 8098 8115 8131 8141 8153 8126 8105 8095 8125 8134 8130 8111 8091 8057 8023 8008 8010 8014 7998 7994 7971 7981 7984 7966 7995 7974 7996 7989 7979 7949 7943 7951 7957 7969 7985 7983 7970 7950 7932 7930 7908 7900 7877 7873 7866 7847 7859 7920 7945 7952 7960 7935 7916 7901 7895 7884 7861 7850 7841 7830 7824 7822 7818 7821 7793 7812 7809 7825 7786 7768 7756 7738 7714 7702 7723 7749 7778 7769 7807 7799 7785 7771 7779 7764 7757 7743 7810 7819 7833 7829 7862 7868 7880 7869 7919 7914 7844 7827 7794 7828 7842 7890 7846 7886 7872 7923 7933 7938 7947 7964 7965 7980 7987 7982 7955 8018 8032 8020 8029 8040 8051 8066 8086 8073 8067 8077 8045 8048 8035 8046 8053 8082 8074 8193 8201 8078 8047 8034 8026 8012 8019 8000 7961 7915 7892 7898 7905 7924 7956 7972 7939 7934 7936 7926 7921 7896 7867 7852 7881 7848 7800 7798 7774 7728 7709 7706 7722 7715 7719 7708 7716 7734 7745 7759 7783 7796 7797 7772 7760 7737 7724 7710 7703 7697 7681 7689 7696 7700 7693 7690 7658 7654 7659 7641 7632 7633 7649 7664 7660 7665 7683 7677 7622 7629 7662 7687 7695 7694 7679 7672 7698 7675 7668 7666 7656 7634 7627 7661 7671 7669 7635 7611 7592 7586 7589 7596 7620 7650 7639 7625 7613 7604 7599 7588 7581 7578 7568 7574 7576 7582 7567 7575 7585 7577 7587 7597 7593 7609 7655 7645 7643 7631 7617 7598 7583 7563 7561 7557 7516 7512 7514 7515 7507 7505 7498 7491 7508 7504 7500 7495 7487 7485 7482 7472 7479 7499 7492 7488 7469 7461 7448 7446 7439 7451 7434 7421 7381 7418 7424 7398 7423 7464 7470 7462 7473 7466 7460 7437 7452 7440 7408 7333 7314 7279 7197 7088 7072 7053 7015 7047 7071 7055 7192 7264 7310 7247 7223 7254 7290 7308 7246 7293 7335 7323 7300 7283 7222 7262 7224 7256 7265 7304 7278 7322 7348 7299 7255 7234 7190 7232 7186 7238 7252 7368 7351 7370 7373 7366 7341 7318 7312 7297 7285 7244 7206 7194 7129 7076 7121 7159 7214 7177 7134 7086 7075 7025 7039 7000 6948 6868 6870 6918 6768 6785 6789 6646 6592 6503 6559 6578 6469 6516 6558 6585 6690 6851 6842 6710 6620 6654 6650 6706 6764 6746 6834 6797 6712 6591 6626 6588 6546 6492 6445 6391 6353 6293 6248 6172 6229 6261 6165 6250 6270 6296 6366 6317 6339 6415 6476 6551 6610 6571 6433 6312 6167 6238 6354 6290 6336 6355 6230 6208 6218 6108 6072 6140 6200 6192 6267 6332 6448 6411 6329 6195 6227 6343 6397 6455 6477 6564 6524 6501 6431 6368 6359 6280 6193 6186 6142 6124 6115 6093 6090 6030 6042 5978 5955 5984 6073 6091 6117 6160 6095 6048 6023 5995 5986 5988 5916 5917 5957 5956 5982 5998 5999 6043 6056 6083 6121 6127 6148 6112 6059 6019 6027 6017 5985 6028 6053 6109 6111 6129 6162 6204 6210 6389 6396 6484 6517 6575 6676 6713 6795 6846 6924 7038 6995 6949 6979 7005 7049 7030 7003 6935 6898 6847 6773 6753 6723 6696 6622 6660 6552 6504 6438 6327 6239 6151 6196 6169 6281 6399 6422 6486 6621 6542 6576 6652 6695 6670 6745 6864 6899 6902 6888 6852 6804 6812 6786 6816 6909 6952 7017 7011 6970 7058 7124 7097 7146 7117 7137 7147 7174 7106 7087 7023 7082 7139 7208 7253 7295 7235 7230 7287 7331 7346 7395 7376 7315 7270 7225 7171 7227 7344 7364 7400 7412 7391 7403 7417 7405 7384 7379 7356 7296 7286 7289 7355 7361 7392 7396 7388 7390 7416 7401 7393 7410 7233 7173 7277 7307 7385 7420 7329 7248 7189 7210 7083 7028 7007 6980 7051 6971 7098 6991 6906 6747 6758 6844 7170 7013 6972 6877 6867 6769 6694 6631 6590 6562 6416 6487 6234 6118 6074 6057 5901 5886 5857 6076 6080 6075 6081 6526 6407 6394 6119 6084 6085 6055 6031 6128 6143 6184 6180 6279 6344 6376 6508 6548 6604 6668 6759 6810 6959 6983 7065 7196 7301 7319 7340 7350 7394 7435 7413 7409 7415 7251 7211 7178 7157 7099 7048 6955 6873 6677 6707 6740 6848 7061 7112 7084 7175 7199 7231 7280 7311 7260 7181 7172 7272 7271 7219 7162 7213 7242 7358 7305 7330 7284 7276 7160 7109 6940 6886 6808 6826 6465 6456 6392 6384 6283 6276 6258 6299 6247 6096 6113 6149 6292 6226 6199 6126 6114 6062 6054 6046 6005 6022 6024 5927 5905 5906 5925 5920 5865 5858 5879 5792 5798 5802 5804 5794 5776 5650 5649 5640 5647 5618 5572 5590 5623 5669 5651 5796 5574 5573 5588 5550 5577 5605 5547 5521 5508 5485 5478 5488 5501 5511 5526 5441 5379 5424 5312 5239 5467 5487 5600 5586 5604 5599 5667 5666 5665 5694 5545 5544 5456 5331 5222 5199 5043 5180 5087 5077 4931 4941 5044 5118 5259 5250 5114 5091 4972 5283 5168 5341 5439 5481 5411 5305 4998 4929 5028 4988 4994 4925 4633 4275 4284 4231 4198 4225 4128 4094 4185 4660 4760 4619 4638 4634 4684 4701 4719 4781 4808 4853 4924 4835 4839 4810 4770 4745 4671 4632 4563 4631 4580 4796 4579 4626 4608 4644 4617 4653 4659 4646 4640 4161 4050 4051 3981 3925 3847 3794 3851 3832 3814 3831 3926 3583 3565 3584 3603 3688 3658 3561 3545 3602 3716 3709 3864 3868 3911 4012 4044 4073 4207 4184 4153 4239 4219 4131 4177 4160 4152 4191 4216 4283 4334 4294 4263 4227 4176 4190 4164 4089 4065 4099 3896 4036 3969 3920 3819 3763 3882 3846 3877 3809 3779 3724 3725 3665 3642 3587 3706 3629 3527 3182 3246 3264 3282 3334 3324 3366 3314 3183 3149 3142 3089 3000 2948 2974 3030 3051 3085 3211 3396 3474 3473 3548 3638 3500 3465 3387 3332 3285 3258 3216 3212 3176 3134 3197 3195 3071 3065 3028 2826 2686 2593 2581 2606 2543 2645 2799 2770 2785 2871 2790 2717 2788 2829 2907 2925 2985 2953 3062 3138 3163 3251 3296 3273 3309 3367 3347 3352 3480 3456 3517 3549 3673 3698 3742 3633 3582 3522 3572 3466 3424 3377 3280 3290 3263 3185 3167 3148 3196 3147 3110 3014 2904 2812 2897 2858 2896 2817 2779 2725 2675 2583 2684 2761 2742 2824 2847 2945 2996 3001 2986 2975 3004 2987 2944 2911 2840 2831 2813 2746 2714 2805 2781 2743 2715 2741 2724 2697 2614 2620 2588 2519 2565 2567 2655 2669 2497 2447 2413 2400 2354 2253 2338 2223 2235 2210 2177 2179 2169 2146 2124 2105 2066 2032 2015 2007 1974 1826 1846 1767 1755 1779 1756 1550 1565 1597 1588 1766 1794 1884 1923 2027 1986 1973 2010 2065 2133 2158 2142 2197 2167 2153 2089 2018 1999 1972 2013 1971 1924 1933 1996 2024 2139 2144 2172 2200 2257 2280 2351 2369 2574 2521 2353 2307 2299 2327 2306 2361 2450 2504 2542 2397 2396 2460 2482 2383 2336 2247 2196 2243 2238 2199 2152 2113 2103 2094 2064 2030 1894 1866 1792 1790 1912 1907 1819 1758 1685 1718 1675 1605 1564 1500 1462 1576 1673 1695 1629 1640 1696 1736 1809 1731 1614 1405 1358 1347 1312 1129 1111 1123 1128 1146 1017 954 1015 1025 1041 990 983 981 974 931 892 925 908 933 886 840 868 899 917 841 825 811 789 796 731 676 727 585 479 438 472 521 628 593 605 674 736 749 752 774 920 946 985 1024 1042 1055 1094 1117 1151 1194 1056 1009 995 1008 1031 1050 1077 1089 1142 1155 1204 1237 1160 1121 1126 1205 1321 1263 1341 1244 1301 1323 1325 1340 1300 1262 1192 1274 1229 1141 1093 1061 1023 1007 989 993 966 1006 1065 1140 1207 1276 1339 1394 1460 1478 1447 1404 1461 1560 1613 1661 1748 1694 1665 1639 1608 1657 1609 1475 1248 1304 1391 1529 1575 1603 1431 1445 1495 1530 1542 1521 1602 1596 1832 1818 1713 1746 1863 1915 1970 2084 2039 2058 1969 1922 1883 1837 1783 1693 1617 1419 1350 1234 1168 1113 1064 1084 1104 1137 1338 1463 1477 1474 1402 1366 1451 1401 1363 1282 1260 1191 1108 1063 1156 1190 1136 1095 1049 1074 1053 1083 1048 964 956 1033 1058 1068 1112 1267 1337 1453 1459 1446 1574 1577 1619 1641 1668 1764 1765 1853 1871 1935 1929 2028 2023 1997 2059 2195 2171 2148 2129 2062 1951 2012 1946 1900 1872 1830 1745 1724 1817 1856 1887 1952 1989 1968 2000 2044 2123 2157 2205 2276 2328 2262 2273 2298 2284 2364 2476 2527 2577 2471 2368 2432 2499 2430 2399 2367 2329 2294 2346 2463 2494 2366 2308 2268 2244 2204 2201 2282 2279 2334 2288 2249 2180 2162 2220 2266 2289 2315 2428 2510 2448 2407 2357 2409 2470 2550 2665 2530 2661 2721 2857 2774 2712 2671 2538 2487 2469 2498 2449 2418 2520 2553 2689 2716 2674 2705 2767 2910 2938 2901 2892 2856 2886 2914 2935 2971 3009 3044 3094 3166 3165 3145 3156 3126 3073 3022 2984 2917 2861 2845 2855 2810 2709 2729 2756 2865 2837 2808 2748 2740 2750 2807 2723 2707 2569 2435 2415 2404 2340 2322 2261 2151 2168 2184 2233 2267 2439 2653 2676 2656 2609 2628 2647 2566 2509 2489 2491 2425 2405 2319 2248 2198 2109 2088 2074 1962 1991 2003 2099 2131 2174 2221 2342 2424 2503 2459 2416 2230 2161 2138 2122 2082 2077 2056 2052 2029 1976 1938 1797 1947 1869 1862 1785 1717 1666 1625 1599 1437 1452 1504 1540 1533 1633 1702 1848 1822 1806 1739 1649 1677 1684 1578 1616 1532 1496 1507 1415 1412 1310 1255 1344 1297 1198 1105 1076 1085 1057 1027 922 928 932 947 952 972 998 1014 992 941 921 950 937 874 881 898 863 838 803 828 779 807 872 895 891 853 792 740 660 643 610 651 685 735 700 597 680 645 629 618 601 632 606 558 551 543 507 531 548 495 511 594 611 638 602 578 554 544 523 429 387 405 385 407 416 436 399 372 389 327 332 269 250 255 234 238 265 320 346 323 306 280 260 297 321 339 357 326 298 284 292 310 349 335 352 376 388 437 446 484 462 448 516 552 583 587 539 545 592 619 634 670 636 681 728 766 747 753 711 690 721 750 710 688 669 648 580 527 598 581 505 515 496 459 410 377 351 379 401 423 461 502 579 514 491 555 633 590 556 616 654 678 668 698 729 703 718 783 767 794 756 775 723 692 663 664 642 657 662 720 751 776 818 839 778 758 741 768 800 813 842 869 821 851 884 1028 1030 1144 1199 1359 1374 1302 1249 1209 1159 1149 1080 980 948 944 875 854 865 808 843 905 823 846 790 765 689 640 687 694 647 709 743 804 852 822 785 827 862 897 896 885 942 960 1037 1073 1186 1333 1390 1433 1319 1256 1185 1235 1288 1275 1171 1214 1287 1362 1535 1654 1671 1699 1689 1644 1589 1491 1518 1543 1579 1650 1503 1466 1398 1298 1399 1388 1438 1368 1334 1239 1188 1090 1110 1088 1038 1046 1079 1103 1166 1195 1187 1177 1097 1082 999 968 1036 1045 1018 1040 987 961 929 911 918 873 867 904 914 923 864 817 826 829 793 786 830 831 797 725 762 787 858 991 1071 1051 1116 1131 1224 1375 1428 1335 1257 1222 1328 1280 1197 1240 1210 1336 1488 1572 1584 1525 1471 1457 1400 1456 1509 1519 1562 1712 1638 1815 1740 1690 1771 1733 1612 1505 1571 1585 1643 1728 1844 1823 1889 1925 1957 1945 1965 1870 1858 1914 1940 1902 1966 2092 2128 2185 2053 1992 1920 1888 1833 1800 1775 1691 1921 1963 2046 2086 2097 2110 2091 2014 1967 2063 2011 2047 2068 2107 2043 2022 1798 1692 1645 1520 1573 1601 1816 1781 1672 1554 1418 1246 1189 1133 1120 1107 1150 1202 1147 1125 1100 1132 1119 1091 962 976 1000 927 871 832 815 795 712 706 707 859 773 833 930 963 1001 1047 1039 1021 994 1012 1067 1134 1259 1258 1383 1430 1497 1528 1458 1416 1385 1369 1434 1356 1311 1233 1135 1087 1003 1010 940 926 1026 1002 988 945 866 769 788 791 759 781 748 677 621 686 620 564 509 524 492 452 443 345 333 330 434 412 455 506 595 631 559 508 468 411 398 404 359 300 266 270 316 358 380 369 356 344 340 315 276 275 268 262 211 188 206 220 254 237 209 219 184 156 170 163 153 157 155 173 178 196 210 294 318 324 363 382 361 430 457 517 573 530 528 489 450 469 510 560 635 622 666 693 655 671 661 665 708 726 679 562 534 546 488 453 431 409 529 482 481 493 518 563 623 713 714 612 672 705 761 824 943 977 1004 984 1005 1029 979 1054 1106 1138 1148 1289 1236 1273 1357 1403 1364 1326 1261 1247 1266 1139 1158 1099 1022 1092 1034 1019 965 935 924 894 912 916 913 888 879 934 973 915 844 834 819 734 691 675 624 567 487 463 419 348 391 365 392 442 477 490 541 570 656 683 754 696 715 724 625 613 603 576 538 557 586 599 658 652 626 584 525 474 480 425 325 289 296 314 366 383 343 329 313 263 278 277 224 199 231 185 167 158 142 139 169 168 181 204 233 279 236 201 151 187 194 304 287 273 299 338 342 400 418 406 547 591 582 673 649 716 627 478 494 565 571 519 537 520 464 439 414 390 328 288 290 307 354 319 295 282 311 283 272 252 251 271 267 256 247 239 221 212 203 207 190 195 191 350 347 334 317 370 393 426 466 473 498 456 408 444 378 374 373 440 432 420 553 733 809 782 699 701 717 732 659 644 588 737 798 882 890 901 1157 1153 1193 1227 1277 1218 1348 1270 1309 1393 1251 1290 1522 1484 1662 1708 1859 1831 1634 1627 1591 1545 1642 1669 1697 1734 1714 1674 1630 1559 1581 1592 1593 1580 1547 1508 1468 1501 1569 1566 1531 1514 1536 1473 1435 1464 1407 1313 1414 1417 1424 1314 1329 1371 1436 1425 1379 1345 1294 1283 1252 1208 1175 1098 1114 1145 1172 1223 1179 1293 1351 1232 1165 1225 1342 1384 1279 1216 1183 1162 1182 1178 1308 1264 1161 902 810 802 745 639 614 467 486 569 600 615 617 526 454 427 449 485 568 637 702 722 742 760 847 763 780 757 695 667 646 549 589 604 522 476 341 394 371 97 86 171 136 103 100 85 130 117 152 141 145 159 148 140 180 208 257 244 227 202 216 222 229 200 213 241 246 165 108 114 105 73 70 80 154 94 123 126 118 110 74 65 58 51 45 2 5 11 7 8 4 12 14 18 36 25 37 16 20 28 44 33 27 34 35 43 61 57 67 99 69 52 50 53 26 1 3 6 10 9 13 15 21 24 17 22 42 49 30 19 39 60 76 96 122 125 106 95 78 93 109 128 131 149 197 286 305 331 337 355 360 396 397 415 362 381 322 301 293 259 242 228 175 225 232 240 261 302 245 226 193 172 162 160 137 87 82 75 38 23 29 31 32 41 46 59 62 56 63 55 72 92 101 116 113 146 133 120 89 71 77 91 104 112 119 124 115 88 79 48 40 47 54 81 64 90 98 107 111 121 164 174 150 138 135 177 176 144 134 129 102 83 66 68 84 127 189 183 217 258 248 235 223 243 198 161 166 214 205 182 186 179 147 143 132 192 230 218 215 249 281 312 291 303 253 309 274 264 285 308 336 353 368 413 433 424 465 513 501 460 483 500 536 577 535 497 504 422 441 451 458 512 533 561 503 471 470 447 402 375 367 364 386 421 395 384 417 403 475 566 499 542 630 641 719 684 704 739 653 607 532 445 435 428 574 609 550 572 540 575 596 608 650 682 697 730 764 772 746 814 820 837 856 845 909 971 975 900 1013 959 906 870 861 850 799 770 784 806 887 878 877 835 755 744 771 805 883 880 848 849 876 893 889 910 969 970 951 958 1052 1101 1075 1060 1122 1163 1315 1355 1444 1480 1479 1483 1541 1395 1423 1285 1343 1286 1231 1143 1124 1164 1173 1230 1307 1291 1271 1284 1215 1221 1242 1354 1320 1278 1206 1324 1380 1392 1465 1449 1373 1367 1327 1370 1498 1499 1538 1631 1704 1615 1552 1621 1651 1780 1776 1795 1886 1903 1911 1898 1932 1956 2016 2073 2102 2126 2192 2208 2236 2302 2317 2337 2410 2343 2258 2219 2186 2141 2078 2087 2009 2115 2119 2120 2166 2232 2301 2269 2202 2181 2096 2031 2071 2025 1942 1906 1843 1835 1784 1742 1610 1544 1443 1441 1410 1493 1635 1705 1814 1857 1851 1810 1789 1749 1686 1618 1586 1557 1537 1517 1561 1489 1422 1377 1349 1220 1292 1296 1281 1219 1211 1303 1245 1295 1226 1200 1352 1361 1322 1268 1372 1442 1455 1511 1482 1516 1558 1595 1711 1747 1753 1754 1663 1680 1882 1864 1917 1960 1980 2042 2108 2130 2163 2207 2225 2255 2313 2331 2254 2264 2250 2363 2483 2485 2524 2561 2523 2516 2560 2612 2630 2600 2584 2493 2466 2467 2402 2391 2300 2314 2260 2178 2191 2187 2111 2117 2173 2193 2140 2072 2048 2020 1995 1977 1896 1881 1955 1948 1878 1834 1827 1842 1786 1698 1622 1583 1598 1534 1515 1587 1620 1626 1450 1490 1487 1365 1316 1176 1180 1353 1409 1429 1420 1454 1476 1523 1539 1623 1679 1768 1707 1682 1512 1582 1659 1710 1725 1744 1658 1700 1549 1492 1556 1570 1636 1628 1656 1720 1852 1879 1875 1959 1934 1936 1757 1751 1752 1743 1676 1604 1555 1427 1360 1408 1467 1506 1481 1527 1606 1655 1667 1664 1647 1563 1546 1432 1526 1548 1568 1632 1646 1637 1611 1567 1524 1440 1426 1387 1413 1551 1553 1600 1624 1703 1729 1791 1741 1813 1763 1782 1838 1867 1904 1987 1926 2026 2079 2098 2159 2135 2083 2165 2215 2206 2228 2189 2218 2227 2275 2263 2309 2360 2390 2384 2506 2511 2505 2529 2604 2637 2667 2736 2763 2719 2658 2627 2706 2752 2744 2696 2657 2623 2598 2570 2557 2533 2500 2451 2372 2347 2359 2332 2291 2395 2436 2370 2348 2224 2239 2290 2394 2419 2453 2457 2514 2591 2513 2572 2633 2677 2765 2830 2863 2783 2751 2618 2580 2539 2563 2613 2678 2749 2771 2843 2875 2962 2959 3003 3035 3018 3005 3057 3104 3066 2977 2946 2937 2956 2954 2862 2839 2804 2702 2594 2532 2549 2522 2474 2528 2478 2479 2556 2595 2605 2698 2796 2815 2823 2926 3017 3033 3034 3013 3112 3107 3083 3047 3008 2950 2940 2918 2867 2818 2828 2794 2811 2854 2876 2873 2898 2846 2912 2967 3024 3102 3093 3128 3175 3203 3255 3301 3300 3227 3214 3209 3245 3202 3153 3092 3032 3045 2951 2934 2992 3023 3060 3007 2960 2949 2924 2890 2913 2973 2927 2838 2814 2797 2859 2827 2776 2780 2733 2793 2753 2608 2559 2465 2433 2406 2378 2358 2310 2292 2194 2176 2075 2070 2017 1998 2060 2076 2033 2061 2213 2295 2325 2350 2421 2349 2377 2335 2271 2234 2217 2145 2101 2118 2090 2004 2085 2112 2054 2001 1985 1979 1954 1913 1905 1895 1939 1839 1927 1978 1941 1890 1841 1849 1850 1825 1855 1847 1805 1944 1877 1845 1820 1799 1769 1727 1688 1723 1735 1652 1701 1648 1594 1683 1762 1909 1901 1828 1880 1861 1899 1928 2019 2095 2067 2038 2104 2231 2190 2214 2245 2278 2311 2341 2386 2492 2536 2512 2551 2587 2562 2515 2464 2444 2426 2375 2323 2388 2555 2650 2682 2718 2800 2792 2842 2885 2887 2930 3025 3048 3019 3011 3053 3026 2979 2955 2902 2881 2850 2782 2730 2662 2602 2651 2643 2693 2672 2652 2615 2621 2599 2480 2422 2373 2352 2403 2387 2455 2408 2438 2477 2495 2641 2646 2601 2537 2540 2582 2632 2683 2648 2679 2688 2772 2777 2731 2758 2852 2879 2931 2900 2922 2966 2997 2920 2844 2816 2766 2735 2732 2889 2899 2968 2998 3041 3037 3015 3236 3333 3356 3378 3390 3442 3432 3436 3438 3397 3425 3523 3460 3464 3538 3574 3551 3570 3605 3652 3660 3669 3640 3619 3569 3617 3687 3722 3697 3645 3614 3580 3506 3421 3389 3415 3454 3427 3392 3373 3346 3316 3376 3413 3337 3336 3248 3330 3249 3225 3217 3193 3230 3256 3137 3074 3099 3108 3043 3016 3010 2972 2905 2853 2980 2961 2895 2809 2791 2738 2685 2610 2611 2589 2668 2680 2745 2713 2690 2659 2564 2541 2517 2490 2472 2401 2437 2379 2355 2281 2277 2209 2154 2182 2237 2286 2164 2114 2116 2093 2155 2259 2256 2240 2285 2324 2389 2462 2385 2501 2585 2663 2703 2711 2673 2798 2819 2806 2835 2916 2991 2969 2939 2941 2878 2958 3080 3069 3095 3105 3162 3241 3229 
