FILE: uy734.tsp
Cities: 734
Runs: 734

Tabu length: 100
Max iterations: 10000
Neighborhood size: 10000
Stop (no improvement): 1000

Best cost: 83492
Average cost: 86141.9
Execution time: 3799.57 seconds

Best route:
368 364 340 336 330 332 343 306 294 312 331 352 365 381 395 401 372 387 419 384 374 375 402 412 443 426 462 454 465 470 479 453 498 499 508 493 485 480 494 490 500 523 536 558 576 585 572 602 590 567 537 535 514 489 492 488 503 511 548 564 586 588 650 659 663 664 671 665 642 637 607 577 581 571 562 542 556 560 557 578 600 601 611 579 575 584 580 589 617 612 621 630 613 618 622 632 633 623 614 591 559 551 543 539 544 527 518 522 519 520 515 513 509 512 517 526 504 476 460 455 472 483 501 481 473 463 449 421 379 357 314 271 248 242 240 229 209 213 182 181 171 170 109 110 118 133 127 115 91 86 81 80 79 85 93 84 77 47 46 36 45 58 68 67 76 75 74 73 72 63 54 53 50 44 41 56 66 83 95 126 120 121 124 123 100 105 208 190 180 162 165 169 191 195 187 196 184 192 215 212 237 269 262 270 263 246 256 247 257 281 289 313 322 325 326 337 348 353 338 317 296 295 292 253 245 266 265 261 252 236 234 205 220 227 179 168 163 161 157 142 140 134 132 151 147 143 125 98 92 69 60 55 51 43 39 40 34 28 26 24 23 17 19 21 25 22 18 27 16 1 3 6 11 2 7 5 4 8 10 15 12 13 9 14 20 29 31 38 42 49 57 52 37 33 30 32 35 48 59 61 88 89 90 70 62 65 71 104 113 108 112 107 119 131 137 156 160 167 178 176 159 150 200 186 199 207 230 233 235 251 243 239 224 231 244 274 284 277 267 268 272 280 301 305 335 346 345 339 328 329 300 321 324 316 298 291 310 323 334 342 351 341 355 344 359 373 363 347 304 273 260 276 264 241 226 225 223 219 194 183 174 153 154 149 166 203 189 175 155 139 130 135 146 138 122 106 103 99 96 117 114 111 97 82 64 78 87 94 101 102 116 128 129 141 145 148 152 136 144 198 201 177 173 202 211 217 218 232 238 255 259 288 287 290 286 283 275 258 254 250 228 214 222 216 206 197 193 164 158 172 185 188 204 210 221 249 279 282 303 315 327 319 309 278 285 293 297 302 318 358 361 388 403 415 440 452 464 461 468 467 495 482 516 531 540 553 546 545 549 593 608 594 565 595 667 652 634 566 524 532 547 554 528 496 474 469 441 409 420 429 428 445 471 456 466 427 444 425 404 394 391 399 382 398 407 397 396 393 385 362 349 366 367 354 350 307 320 308 299 311 333 356 389 376 377 380 383 405 406 417 430 433 431 437 457 477 487 502 505 491 484 450 434 432 423 413 414 386 360 369 370 378 371 400 435 408 418 410 416 422 436 442 458 475 486 507 533 530 538 555 574 563 529 510 506 521 525 550 561 587 598 583 597 582 569 568 596 603 641 661 668 679 693 692 712 723 734 724 694 683 675 653 639 635 636 626 648 656 676 670 684 680 689 673 662 649 647 620 638 654 660 669 657 677 686 681 674 682 690 699 698 700 706 711 716 722 725 726 727 732 733 729 728 730 731 721 720 719 718 710 713 717 714 707 703 702 701 704 708 705 709 715 697 691 687 696 695 688 685 678 672 666 651 644 645 646 658 655 643 640 631 615 619 624 616 610 604 573 592 599 606 609 605 629 628 627 625 570 552 541 534 497 478 438 439 448 451 446 447 459 424 411 390 392 
