FILE: zi929.tsp
Cities: 929
Runs: 929

Tabu length: 100
Max iterations: 10000
Neighborhood size: 10000
Stop (no improvement): 1000

Best cost: 100792
Average cost: 104195
Execution time: 5786.13 seconds

Best route:
687 795 778 727 663 686 744 844 854 864 855 858 862 871 882 885 888 898 891 894 899 904 905 907 912 913 916 918 917 911 910 900 895 908 914 919 921 923 928 926 925 922 924 927 929 920 915 909 903 896 897 901 906 902 890 893 892 889 870 867 857 875 886 881 880 887 883 877 863 856 850 834 826 797 632 626 576 622 650 843 838 837 832 861 868 851 841 830 820 822 823 746 780 825 829 627 589 550 598 534 521 520 508 384 359 355 366 363 360 348 339 333 331 308 309 288 179 80 77 72 65 35 16 50 58 57 76 48 43 31 14 18 3 4 5 11 20 30 29 36 34 21 10 15 13 1 6 2 8 22 46 49 81 82 86 85 84 88 94 93 237 255 297 306 245 325 327 344 358 356 349 347 346 334 328 283 269 251 254 260 284 293 314 342 343 340 367 368 371 433 450 451 494 501 465 380 374 364 338 345 341 332 275 285 201 100 90 78 42 41 40 63 44 32 25 24 23 26 17 12 7 9 19 27 33 37 52 79 68 66 73 60 47 28 38 39 45 51 53 54 56 55 61 64 67 71 75 70 69 74 83 87 92 101 111 116 118 119 127 123 128 126 104 115 120 124 114 130 117 129 139 165 171 151 107 113 112 122 108 96 99 230 220 192 198 213 219 221 232 244 249 250 246 242 239 248 247 243 241 240 236 227 231 225 233 224 211 210 196 184 167 169 172 178 176 168 164 161 163 158 156 141 152 145 149 142 138 140 137 135 136 143 150 159 170 153 157 146 160 155 147 134 125 121 105 109 106 110 131 144 148 162 166 181 183 175 174 177 180 173 182 185 187 191 194 186 188 204 200 215 223 228 234 226 212 209 207 206 203 193 195 197 190 189 199 214 217 202 208 216 222 218 229 235 253 256 258 267 290 279 295 311 317 303 300 299 289 262 252 133 103 97 89 132 257 273 274 294 307 298 326 330 316 310 304 305 282 272 266 265 261 270 286 271 315 319 361 398 437 443 412 391 381 372 369 351 352 354 362 357 321 335 370 365 375 350 324 287 291 301 302 277 268 263 264 259 238 154 205 102 59 62 91 98 95 276 278 281 280 296 312 320 318 329 313 292 322 323 337 336 373 426 484 549 639 760 745 649 638 648 755 817 840 849 821 688 637 647 631 613 579 543 530 495 466 413 425 438 559 515 473 483 482 502 571 575 593 592 630 796 730 614 617 633 818 824 853 876 869 859 845 839 865 866 873 884 879 878 874 872 860 852 847 848 846 842 828 833 819 812 628 563 574 588 597 629 646 724 766 784 788 814 815 813 803 804 789 793 767 748 743 754 741 758 753 759 771 777 769 775 787 776 785 786 783 781 770 765 747 734 736 740 750 751 761 772 768 763 757 749 738 735 729 716 714 698 703 684 659 643 669 678 671 667 675 658 657 660 670 677 674 656 668 655 652 645 640 644 651 654 666 661 653 672 689 697 702 690 679 681 682 685 695 694 700 712 719 725 732 728 713 699 704 711 721 710 696 692 683 676 691 693 680 665 673 707 717 709 720 701 708 705 722 723 715 706 718 731 739 752 756 742 733 737 764 762 773 782 779 774 790 801 800 802 799 792 798 810 809 807 806 791 808 816 836 835 827 831 805 641 642 611 529 533 519 528 542 558 570 569 541 548 557 532 527 506 499 500 507 456 464 472 481 493 463 455 449 442 430 423 431 432 424 420 400 396 390 388 376 353 377 379 383 387 389 399 410 411 417 409 406 397 395 405 416 422 421 415 404 394 393 386 382 378 385 392 403 408 414 402 401 407 419 418 447 453 457 476 486 513 503 514 478 470 488 487 477 458 469 448 454 459 428 429 436 441 460 461 471 462 492 505 504 480 491 490 479 489 498 518 526 555 561 554 553 540 531 525 524 517 512 511 510 497 475 468 446 445 435 427 434 439 444 440 452 467 474 485 496 516 523 522 509 551 560 564 565 566 544 535 538 545 539 536 546 552 582 583 600 618 619 623 726 794 811 662 625 624 615 605 601 606 602 584 562 567 568 537 547 556 572 577 585 594 595 603 612 620 607 599 608 609 604 591 580 586 590 578 573 581 587 596 610 616 621 634 636 635 664 
