FILE: mu1979.tsp
Cities: 1979
Runs: 100

Tabu length: 200
Max iterations: 20000
Neighborhood size: 30000
Stop (no improvement): 5000

Best cost: 91880
Average cost: 94161.2
Execution time: 6990.11 seconds

Best route:
1207 1224 1241 1250 1257 1242 1249 1196 1173 1172 1134 1127 1120 1100 1117 1121 1133 1144 1158 1153 1146 1175 1115 1109 1064 1047 1037 1035 1016 1020 1058 1118 1085 1056 1046 1032 938 934 930 939 999 1001 1027 1013 1017 1018 1022 1030 1043 1024 1003 1010 990 972 955 966 979 995 991 987 989 988 984 986 981 973 969 967 962 953 950 941 945 946 951 959 964 971 974 978 977 968 963 936 872 851 838 867 876 879 900 901 883 853 960 1005 998 949 912 887 875 792 760 723 717 697 703 674 719 661 672 612 570 590 606 625 669 682 598 579 567 560 574 578 594 610 615 622 627 650 658 642 687 712 772 785 846 788 782 774 770 749 737 714 704 693 686 698 757 759 742 726 680 678 670 663 563 552 524 523 504 494 513 522 530 531 537 551 565 577 591 609 633 626 641 640 628 621 624 632 614 648 673 676 738 735 744 761 763 821 773 748 729 711 741 779 790 825 840 842 822 922 865 803 810 802 800 799 811 793 751 716 708 659 636 619 620 665 679 701 702 694 690 681 705 724 728 745 752 755 762 769 808 807 814 817 826 832 839 868 885 994 965 961 956 957 970 980 937 933 927 921 852 841 844 850 829 828 798 771 750 725 671 666 657 647 643 644 573 572 550 521 536 529 520 493 490 487 452 442 443 473 466 453 444 445 454 467 474 446 455 456 447 457 495 505 532 538 526 508 516 515 518 514 510 489 501 506 497 488 472 468 470 451 448 431 417 418 414 395 400 396 379 366 364 345 341 337 334 329 322 317 310 309 308 300 311 344 352 354 348 350 356 369 378 388 382 377 394 399 428 463 475 476 483 486 491 496 534 539 543 556 545 544 566 575 587 582 589 500 441 433 430 427 426 423 422 421 402 403 404 392 383 361 362 370 343 333 332 325 326 328 313 276 275 274 271 270 267 266 257 237 226 228 225 229 230 234 231 233 232 235 236 238 242 247 251 254 253 250 240 239 243 244 246 249 252 258 259 262 268 269 272 277 279 289 293 295 301 304 307 327 330 351 336 339 365 353 357 359 373 372 376 381 380 368 390 391 401 425 412 419 405 398 406 407 410 409 408 413 387 384 375 363 347 355 349 340 331 316 314 321 324 323 306 299 296 291 285 283 284 281 282 286 294 292 290 278 280 287 297 298 302 303 305 315 320 318 319 335 338 346 358 360 367 374 371 385 389 393 386 436 432 435 439 440 449 492 541 540 553 547 546 558 557 561 596 688 699 721 730 732 739 722 709 710 706 718 715 700 691 692 683 662 646 586 554 580 597 637 635 631 608 601 605 595 599 600 584 653 576 571 555 542 533 509 507 482 461 458 459 471 465 434 438 450 460 462 464 469 477 479 478 481 485 484 480 517 498 499 502 525 559 569 652 638 629 611 604 593 581 564 592 583 602 617 649 645 660 667 675 668 696 754 784 768 777 805 786 794 796 818 824 836 831 823 854 882 888 886 895 918 914 926 915 909 1108 1052 1014 997 992 928 925 910 905 892 908 884 880 833 864 916 913 898 815 797 827 848 874 894 893 947 940 958 1002 1025 1019 1009 1004 1007 1011 1021 1031 1065 1061 1098 1106 1128 1161 1192 1202 1211 1198 1243 1248 1256 1267 1269 1276 1284 1292 1291 1289 1288 1283 1301 1295 1298 1297 1286 1275 1264 1266 1260 1219 1209 1187 1208 1272 1271 1274 1281 1265 1273 1244 1236 1229 1223 1218 1214 1217 1220 1213 1205 1199 1176 1170 1148 1137 1140 1147 1159 1150 1177 1141 1129 1110 1028 1062 1071 1076 1078 1083 1096 1116 1131 1103 1080 1074 1093 1114 1138 1156 1178 1168 1180 1184 1255 1210 1225 1251 1285 1300 1318 1316 1325 1333 1327 1330 1336 1322 1335 1268 1259 1239 1183 1195 1179 1136 1189 1200 1309 1337 1339 1349 1355 1341 1340 1342 1347 1352 1354 1380 1358 1357 1383 1367 1372 1381 1386 1385 1382 1389 1394 1396 1397 1402 1384 1359 1338 1361 1375 1411 1398 1395 1404 1403 1409 1419 1427 1426 1421 1407 1415 1425 1422 1429 1408 1420 1431 1437 1441 1442 1447 1451 1450 1455 1439 1435 1445 1448 1456 1457 1453 1443 1440 1423 1428 1449 1462 1464 1467 1466 1471 1474 1476 1477 1479 1463 1481 1482 1484 1473 1487 1503 1497 1507 1510 1513 1520 1527 1524 1531 1541 1536 1538 1542 1547 1551 1552 1553 1554 1558 1560 1564 1569 1571 1575 1580 1582 1581 1583 1585 1592 1598 1593 1601 1600 1606 1607 1610 1621 1624 1627 1623 1620 1608 1605 1602 1588 1579 1591 1587 1584 1574 1559 1532 1514 1515 1516 1512 1506 1430 1418 1410 1405 1388 1370 1400 1393 1391 1368 1356 1348 1329 1317 1307 1304 1279 1311 1305 1308 1258 1261 1270 1280 1290 1247 1232 1212 1201 1084 1075 1095 1101 1111 1119 1132 1143 1142 1145 1152 1157 1160 1174 1169 1151 1206 1237 1246 1230 1253 1216 1193 1166 1165 1091 1088 1086 1073 1094 1112 1124 1171 1186 1139 1105 1135 1164 1185 1182 1163 1126 1188 1204 1287 1296 1293 1312 1320 1334 1343 1345 1344 1350 1366 1362 1413 1489 1458 1399 1376 1373 1406 1412 1433 1470 1491 1488 1485 1493 1486 1534 1537 1548 1557 1570 1535 1528 1505 1500 1492 1490 1475 1424 1452 1465 1438 1401 1392 1369 1353 1332 1324 1303 1302 1235 1226 1262 1155 1162 1154 1125 1079 1090 1104 1087 1102 1097 1191 1190 1197 1194 1203 1222 1252 1263 1294 1299 1331 1319 1323 1306 1365 1371 1377 1374 1378 1379 1387 1390 1414 1417 1434 1444 1469 1480 1472 1468 1459 1416 1432 1446 1454 1460 1461 1478 1483 1495 1496 1504 1511 1521 1508 1498 1501 1502 1494 1436 1499 1545 1544 1543 1561 1565 1550 1546 1530 1539 1562 1555 1556 1566 1567 1540 1526 1522 1523 1533 1549 1563 1568 1578 1577 1576 1597 1604 1619 1615 1603 1590 1589 1596 1595 1594 1573 1572 1618 1622 1626 1625 1637 1646 1660 1652 1645 1636 1634 1651 1678 1679 1694 1698 1699 1707 1708 1720 1715 1710 1693 1692 1688 1674 1670 1696 1684 1689 1687 1671 1667 1647 1638 1639 1640 1632 1641 1628 1653 1656 1668 1659 1662 1650 1648 1635 1629 1630 1631 1633 1642 1644 1649 1654 1655 1657 1658 1661 1663 1669 1664 1665 1672 1673 1675 1676 1677 1686 1683 1690 1691 1695 1700 1702 1703 1704 1705 1706 1709 1711 1713 1714 1716 1718 1722 1724 1721 1717 1681 1680 1685 1682 1701 1712 1725 1737 1726 1728 1729 1730 1732 1739 1741 1742 1743 1744 1746 1748 1749 1750 1751 1752 1758 1759 1764 1767 1770 1772 1782 1788 1790 1792 1791 1793 1798 1795 1794 1799 1800 1801 1805 1812 1807 1809 1810 1811 1818 1820 1822 1828 1832 1860 1858 1869 1863 1875 1842 1840 1839 1833 1824 1827 1831 1835 1852 1857 1862 1859 1879 1885 1856 1861 1876 1883 1893 1898 1890 1914 1911 1909 1908 1913 1910 1915 1923 1928 1933 1930 1932 1938 1944 1946 1935 1934 1936 1918 1922 1939 1947 1958 1951 1937 1916 1920 1942 1949 1943 1955 1975 1974 1973 1969 1970 1972 1977 1978 1979 1976 1971 1967 1966 1968 1965 1961 1964 1962 1963 1956 1960 1950 1945 1940 1941 1948 1952 1953 1957 1959 1954 1927 1921 1907 1894 1887 1848 1880 1881 1886 1884 1870 1867 1864 1854 1849 1846 1843 1836 1830 1825 1837 1850 1847 1853 1851 1855 1865 1871 1878 1873 1866 1868 1882 1888 1891 1892 1896 1895 1899 1905 1904 1900 1917 1926 1925 1931 1929 1924 1919 1912 1906 1897 1901 1902 1903 1889 1877 1872 1874 1845 1834 1841 1844 1838 1829 1815 1813 1819 1826 1823 1821 1816 1817 1814 1808 1806 1804 1803 1797 1802 1796 1787 1789 1784 1786 1785 1781 1778 1773 1771 1774 1780 1775 1779 1783 1777 1776 1768 1769 1766 1765 1763 1762 1761 1760 1757 1756 1755 1754 1753 1747 1745 1740 1736 1735 1734 1733 1731 1727 1723 1738 1719 1697 1666 1643 1617 1612 1613 1609 1614 1616 1611 1599 1586 1529 1518 1519 1525 1517 1509 1360 1351 1346 1277 1278 1282 1364 1363 1328 1326 1321 1315 1310 1314 1313 1228 1231 1234 1238 1221 1215 1227 1245 1254 1240 1233 1130 1123 1122 1113 1107 1089 1081 1069 993 1015 1000 906 881 862 857 869 843 812 746 747 789 830 891 923 931 942 952 982 975 944 929 903 654 731 707 733 776 775 835 932 935 1034 1040 1066 1070 1045 1038 1026 1029 1053 1057 1063 1036 1041 1055 1044 1012 1006 996 985 948 902 870 871 878 861 845 804 795 756 727 734 778 847 877 954 917 889 819 813 783 753 685 585 568 549 548 613 639 651 695 684 630 618 616 634 603 437 424 342 288 263 261 241 227 221 224 245 222 217 214 211 206 201 207 205 212 208 197 190 186 183 185 178 181 188 189 194 193 192 187 180 184 172 173 174 16 6 1 2 3 4 5 17 7 8 9 13 18 24 33 31 26 22 14 12 19 10 15 21 29 32 27 48 91 81 90 96 99 102 125 129 141 134 110 101 98 46 37 40 56 63 68 66 64 65 87 85 77 86 89 83 103 124 123 119 117 131 154 160 165 176 177 171 166 167 168 162 163 159 142 135 147 155 158 148 106 88 104 112 111 116 130 149 157 169 143 132 126 133 146 152 114 121 120 84 95 72 58 57 53 69 107 94 41 45 49 51 52 74 62 60 76 75 70 61 39 23 25 20 36 42 59 71 79 92 105 113 115 100 80 97 118 122 138 136 140 150 156 144 153 145 139 127 137 161 170 182 164 151 128 109 82 73 93 78 50 43 34 67 108 55 47 44 30 38 35 11 28 54 175 179 191 196 199 203 210 195 198 200 202 204 209 213 215 216 218 219 220 223 248 256 255 260 264 265 273 312 416 411 397 415 420 429 503 511 519 527 528 512 535 562 623 655 656 664 689 607 588 677 713 740 743 780 801 849 834 820 816 809 764 767 758 736 720 766 765 791 781 787 806 837 856 859 866 860 863 855 858 873 890 897 904 896 924 943 976 907 899 911 920 919 983 1033 1072 1068 1039 1049 1060 1059 1048 1023 1008 1042 1051 1054 1050 1067 1077 1082 1092 1099 1149 1167 1181 
