FILE: tz6117.tsp
Cities: 6117
Runs: 100

Tabu length: 200
Max iterations: 30000
Neighborhood size: 50000
Stop (no improvement): 10000

Best cost: 432412
Average cost: 436604
Execution time: 27485.4 seconds

Best route:
6089 6066 6050 6049 6036 6015 5898 5958 6001 6023 5897 5797 5798 5730 5754 5753 5752 5764 5813 5826 5777 5751 5719 5713 5677 5670 5647 5659 5690 5720 5706 5671 5672 5660 5640 5624 5678 5691 5679 5661 5600 5648 5694 5693 5692 5799 5739 5707 5731 5695 5696 5708 5732 5505 5493 5406 5387 5363 5347 5351 5352 5372 5396 5458 5438 5410 5411 5388 5373 5376 5369 5384 5385 5394 5358 5342 5357 5364 5341 5338 5327 5309 5248 5244 5239 5235 5223 5208 5088 4961 5150 5263 5298 5393 5446 5513 5523 5544 5551 5584 5564 5522 5543 5521 5512 5499 5485 5443 5451 5470 5534 5533 5617 5623 5669 5688 5705 5689 5737 5729 5738 5763 5796 5855 5873 5977 6044 6048 6085 6100 6095 5989 5983 5866 5865 5854 5837 5795 5785 5762 5761 5745 5750 5728 5812 5836 5864 5825 5794 5872 5882 5894 5895 5896 5925 5949 5970 5988 6000 6014 5999 5987 5969 5948 5938 5924 5937 5947 5910 5893 5922 5923 5956 5968 5957 6006 6035 6029 6065 6098 6099 6104 6107 6094 6088 6084 6082 6081 6079 6078 6074 6073 6072 6064 6060 6057 6055 6047 6039 6034 6028 6005 5998 5982 5976 5975 5967 5936 5909 5892 5863 5853 5846 5835 5811 5784 5749 5718 5704 5687 5675 5674 5667 5658 5631 5622 5504 5484 5445 5440 5424 5386 5346 5308 5368 5390 5405 5456 5476 5415 5457 5477 5591 5608 5668 5676 5615 5570 5616 5542 5527 5511 5437 5434 5419 5392 5391 5383 5331 5326 5321 5284 5258 5221 5213 5202 5181 5180 5135 5008 5207 5262 5269 5257 5283 5313 5320 5280 5256 5232 5220 5179 5077 5087 5066 4949 4917 4900 4901 4886 4825 4757 4769 4744 4731 4707 4689 4649 4668 4674 4688 4751 4797 4856 4814 4780 4821 4885 4899 4884 4916 4915 4972 4883 4927 4994 5086 5116 5099 4971 4898 4882 4871 4926 4984 4983 5028 5034 5098 5049 5007 4993 4948 4947 4925 4897 4896 4870 4869 4924 4946 4970 4982 5006 5033 5027 4969 4957 4945 4981 4992 5046 5075 5076 5047 5048 5085 5178 5165 5084 5074 5073 5065 5083 5045 5032 5064 5044 5115 5134 5188 5164 5147 5097 5026 5043 5126 5146 5145 5133 5163 5114 5095 5096 5072 5063 5025 4990 4980 4911 4912 4862 4913 4880 4863 4881 4843 4922 4921 4937 4936 4966 4967 4991 5005 4968 4956 4923 4914 4895 4834 4835 4854 4855 4868 4806 4796 4836 4768 4648 4585 4454 4362 4312 4240 4263 4239 4354 4238 4201 4200 4288 4337 4367 4386 4435 4461 4482 4520 4528 4536 4535 4579 4584 4594 4620 4561 4572 4647 4700 4667 4641 4656 4687 4716 4724 4750 4767 4813 4723 4749 4842 4867 4861 4820 4824 4795 4766 4699 4765 4779 4819 4833 4860 4878 4879 4894 4893 4909 4978 5000 5001 4954 4933 4910 4934 4944 4935 4955 4964 4965 4979 5002 5003 5004 5019 5113 5132 5158 5187 5196 5195 5206 5251 5246 5260 5271 5261 5252 5238 5228 5215 5212 5229 5242 5243 5247 5253 5273 5279 5254 5234 5218 5219 5255 5268 5274 5296 5317 5318 5319 5325 5297 5281 5282 5312 5340 5337 5345 5378 5367 5362 5350 5349 5344 5336 5324 5295 5307 5290 5286 5278 5272 5267 5285 5289 5323 5335 5339 5316 5294 5315 5293 5277 5192 5157 5162 5172 5186 5211 5227 5266 5265 5237 5217 5226 5225 5204 5155 5154 5104 5069 5042 5016 4953 4876 4852 4859 4875 4891 4943 4962 4999 5024 4988 5081 5092 4998 4940 4941 4942 4920 4858 4832 4818 4761 4817 4792 4791 4831 4851 4865 4930 4952 4890 4905 4889 4823 4811 4830 4804 4760 4736 4714 4678 4617 4673 4663 4735 4713 4684 4644 4608 4570 4554 4547 4502 4452 4532 4503 4414 4397 4405 4392 4384 4334 4305 4304 4261 4252 4237 4262 4253 4254 4272 4306 4374 4375 4433 4525 4545 4544 4524 4505 4475 4446 4490 4489 4468 4453 4421 4415 4396 4335 4346 4373 4394 4395 4407 4445 4420 4406 4398 4385 4393 4427 4426 4432 4444 4460 4467 4522 4523 4533 4516 4534 4504 4548 4555 4576 4593 4609 4623 4592 4600 4619 4618 4655 4639 4645 4697 4720 4737 4754 4738 4739 4721 4679 4664 4646 4624 4577 4601 4625 4633 4665 4685 4705 4722 4755 4686 4740 4741 4742 4743 4756 4762 4777 4812 4866 4877 4906 4892 4907 4931 4963 5031 5017 5070 5156 5191 5199 5205 5200 5183 5201 5184 5170 5185 5171 5144 5112 5082 5062 5111 5071 5094 5093 5061 4977 4976 5018 4989 4932 4908 4841 4853 4805 4778 4794 4764 4698 4763 4775 4730 4774 4793 4715 4706 4666 4640 4610 4578 4571 4567 4546 4517 4526 4527 4518 4519 4434 4336 4311 4273 4073 4121 4050 3897 3838 3853 3973 4135 4039 3925 3917 4012 4090 4173 4241 4347 4376 4348 4327 4212 4188 4174 4122 4106 4040 3999 4115 4189 4213 4289 4328 4368 4363 4364 4387 4416 4437 4377 4399 4436 4483 4556 4476 4469 4491 4506 4507 4495 4484 4496 4455 4408 4388 4378 4422 4438 4456 4508 4562 4580 4581 4582 4602 4650 4680 4717 4725 4675 4690 4701 4708 4726 4727 4718 4709 4691 4642 4651 4669 4670 4657 4636 4637 4652 4658 4659 4671 4702 4692 4710 4719 4758 4799 4798 4782 4781 4807 4808 4837 4844 4845 4857 4938 4958 4986 5037 5100 5128 5127 5136 5119 5118 5106 5051 5036 5009 4985 5035 5029 5050 5105 5117 5173 5174 5148 5166 5203 5233 5222 5189 5182 5175 5176 5167 5149 5129 5107 5078 5052 5038 5039 5053 5067 5101 5108 5137 5168 5138 5139 5159 5120 5040 5030 4974 4995 5010 4973 4809 4800 4784 4783 4770 4752 4753 4771 4785 4786 4759 4745 4694 4693 4711 4681 4629 4628 4606 4564 4558 4557 4573 4597 4612 4627 4621 4626 4635 4605 4634 4611 4603 4604 4595 4596 4583 4563 4538 4537 4529 4470 4509 4492 4477 4478 4471 4447 4439 4380 4379 4389 4369 4355 4356 4338 4313 4308 4292 4291 4255 4264 4242 4256 4222 4215 4203 4168 4145 4153 4177 4191 4190 4176 4175 4202 4214 4290 4329 4307 4097 4098 4075 4063 4052 4064 4042 4027 4041 4074 4051 4062 3989 3889 3839 3811 3753 3822 3833 3898 3804 3657 3465 3641 3658 3734 3735 3708 3505 3356 3333 3334 3357 3378 3391 3529 3549 3550 3591 3674 3742 3722 3659 3642 3691 3615 3573 3593 3551 3592 3572 3427 3335 3283 3219 3220 3135 3094 3053 2982 2757 2704 2509 2406 2285 2439 2703 2686 2576 2284 2345 2405 2438 2437 2485 2508 2786 2913 3020 3051 3033 2981 2940 2992 3011 3052 3117 3147 3250 3316 3134 3218 3315 3528 3355 3217 3166 3235 3266 3282 3281 3390 3464 3483 3614 3504 3640 3721 3707 3733 3706 3798 3705 3741 3870 3972 3963 3947 3962 3879 3803 3720 3821 3860 3869 3907 3998 4026 3934 3961 3906 3896 3868 3781 3820 3767 3704 3703 3639 3548 3377 3314 3442 3426 3313 3132 3049 3031 3048 3047 3077 3076 3103 3102 3090 3089 3046 3075 3131 3030 2976 3019 3010 2997 2975 2968 3088 3116 3180 3249 3331 3330 3352 3312 3311 3264 3115 3215 3424 3459 3523 3588 3589 3502 3425 3524 3655 3654 3740 3787 3732 3719 3688 3689 3672 3673 3632 3611 3547 3525 3503 3460 3461 3462 3353 3375 3463 3376 3332 3354 3527 3570 3635 3636 3637 3571 3638 3702 3766 3780 3789 3867 3946 4038 4114 4120 4134 4133 4132 4131 4152 4119 4167 4199 4211 4236 4260 4271 4287 4303 4326 4345 4372 4361 4344 4353 4333 4404 4366 4332 4325 4302 4286 4151 4144 4113 4096 4089 4072 4061 3971 3895 3852 3810 3788 3613 3590 3526 3612 3633 3656 3634 3690 3797 3809 3851 3808 3796 3832 3845 3850 3970 3960 3969 3959 3905 3904 3894 3878 3859 3802 3701 3630 3631 3569 3587 3586 3629 3568 3501 3389 3408 3423 3545 3546 3610 3687 3751 3731 3752 3765 3764 3779 3778 3585 3522 3521 3441 3280 3248 3233 3214 3087 3060 3009 2624 2537 2505 2461 2402 2370 2309 2247 2197 2138 2102 2015 1973 1888 1883 1860 1885 1795 1971 1988 2018 2020 2017 2019 1987 1970 1972 1946 1918 1917 1915 1861 1886 1794 1818 1817 1816 1793 1745 1718 1700 1624 1582 1573 1566 1547 1571 1565 1572 1625 1638 1650 1669 1716 1668 1564 1537 1523 1530 1516 1474 1504 1517 1529 1535 1543 1546 1563 1536 1503 1505 1507 1501 1473 1470 1469 1409 1391 1398 1392 1367 1343 1344 1335 1349 1364 1366 1381 1410 1442 1459 1485 1502 1486 1506 1581 1549 1548 1553 1554 1598 1637 1626 1596 1623 1636 1661 1717 1772 1833 1859 2276 2462 2431 2572 2645 2699 2859 2860 2919 2783 2506 2434 2433 2432 2371 2339 2137 2104 1919 1916 1948 2071 2070 2045 2016 1884 1862 1920 1947 1969 2277 2248 2340 2278 2663 2538 2372 2310 2484 2539 2700 2899 2861 2784 2664 2720 2735 2507 2311 2312 2103 2072 2279 2280 2341 2755 2785 3078 3091 3079 3092 3216 3234 3265 3409 3133 3104 3093 3032 2999 2979 2991 2998 2978 2977 2900 2931 2947 2957 2980 2939 2887 2813 2756 2814 2701 2601 2575 2404 2249 2344 2283 2282 2199 2073 2025 1949 1890 1921 1990 2144 2343 2435 2436 2465 2625 2542 2375 2374 2403 2574 2646 2573 2541 2464 2373 2107 2047 2024 1974 2023 2046 2022 1774 2198 2342 2463 2600 2540 2599 2281 2021 1703 1627 1583 1759 1731 1702 1730 1719 1758 1889 1835 1989 2106 2143 2142 2221 2105 2141 2140 2139 1887 1834 1757 1773 1815 1696 1544 1538 1699 1701 1697 1684 1698 1683 1682 1651 1608 1597 1595 1545 1454 1389 1374 1325 1453 1443 1432 1390 1357 1356 1323 1315 1266 1257 1247 1225 1249 1256 1224 1201 1175 1157 1174 1173 1168 1202 1255 1262 1294 1248 1184 1158 1133 1123 1054 1120 1096 1035 1021 1070 1134 1034 980 981 964 961 954 949 895 909 894 872 919 908 922 921 907 863 862 893 920 936 953 952 950 951 884 846 871 854 845 844 826 817 816 803 783 810 825 788 782 732 762 730 692 729 745 719 701 680 690 602 621 628 695 679 665 642 641 630 620 605 603 592 581 580 559 476 470 467 456 341 299 286 277 292 258 205 165 145 146 130 135 144 136 147 124 115 113 112 89 99 92 114 129 128 106 101 91 84 85 82 74 68 67 72 83 100 81 90 60 33 18 23 27 13 8 5 9 12 26 32 52 47 48 58 57 61 69 75 93 98 73 66 59 28 17 10 16 19 20 1 6 29 31 42 45 46 86 76 43 2 14 34 39 53 77 49 40 62 35 54 55 70 56 63 64 36 21 24 11 3 15 4 7 22 37 41 50 71 78 95 94 102 107 108 109 139 150 149 157 162 169 138 131 126 125 117 116 161 198 224 208 238 248 279 294 305 328 335 355 354 370 376 363 334 315 308 293 267 304 278 246 247 234 233 223 214 168 137 87 148 167 207 218 229 245 256 274 273 285 287 300 333 348 362 319 291 288 276 275 263 257 236 230 221 219 220 212 213 206 196 197 194 190 192 188 195 211 217 191 172 171 181 178 180 177 174 159 154 155 156 160 166 164 173 175 189 179 203 204 231 232 222 237 242 241 254 265 290 264 266 289 298 302 303 301 313 314 318 326 327 361 413 471 468 449 440 462 472 484 513 531 535 530 534 549 550 558 562 561 560 604 622 623 536 579 632 631 644 655 643 624 629 667 710 712 709 678 693 713 720 743 744 746 763 791 773 792 835 836 818 819 804 789 764 761 721 711 702 645 593 475 473 441 405 403 483 477 469 450 448 428 434 414 463 489 501 502 537 551 563 567 566 594 606 625 646 663 633 664 666 681 694 691 700 696 718 714 722 731 790 772 747 733 755 756 748 749 757 765 827 793 774 766 750 734 703 656 668 682 683 657 658 647 659 669 670 660 684 751 735 758 794 811 911 910 897 896 929 982 1011 1071 1113 1124 1135 1176 1177 1086 1085 937 885 886 898 938 923 965 971 1012 1097 1098 1110 1099 1072 1056 1055 1013 983 939 947 984 972 985 994 986 973 957 930 931 942 927 926 916 915 900 877 876 875 899 914 913 941 940 925 888 889 874 839 831 795 796 807 776 727 715 705 698 688 673 662 650 661 672 726 725 738 687 724 671 697 723 704 775 806 829 830 873 887 912 924 966 956 946 955 864 856 855 837 812 805 767 820 838 828 784 737 736 583 608 686 685 607 568 582 541 520 510 485 492 503 542 569 584 543 511 552 609 595 553 585 586 610 634 587 570 626 648 635 649 611 588 571 554 544 538 521 514 522 515 545 564 612 613 614 615 589 596 636 699 716 728 739 752 799 798 797 808 840 847 878 901 902 879 865 848 866 928 903 943 932 857 858 832 821 867 849 850 851 852 904 944 962 993 1017 1077 1090 1078 1106 1107 1119 1118 1122 1152 1147 1181 1164 1189 1200 1188 1180 1172 1171 1170 1163 1162 1117 1059 1016 1015 975 970 969 960 987 1024 1076 1089 1116 1101 1075 1111 1088 1074 1058 1047 1001 998 992 997 959 958 948 1014 968 974 996 995 967 1000 1036 1057 1045 1023 1022 1100 1114 1104 1073 1046 1121 1130 1140 1126 1142 1143 1144 1105 1087 1145 1159 1198 1221 1229 1214 1228 1252 1259 1265 1281 1268 1272 1280 1292 1279 1271 1264 1291 1304 1290 1297 1317 1278 1263 1258 1237 1226 1238 1251 1239 1233 1240 1227 1213 1203 1197 1220 1196 1150 1125 1129 1136 1141 1169 1178 1195 1186 1185 1250 1295 1300 1277 1267 1289 1296 1303 1302 1316 1301 1310 1338 1337 1299 1288 1276 1332 1336 1350 1382 1420 1518 1609 1574 1421 1460 1455 1399 1393 1383 1345 1339 1346 1320 1321 1340 1351 1375 1411 1422 1423 1456 1471 1476 1444 1433 1461 1475 1487 1610 1775 1836 1976 1950 1975 2145 1991 1922 2026 2466 2376 2602 2702 2872 2665 2901 2912 3050 2603 2108 2177 2028 1797 1760 1706 1705 1892 1863 1891 2027 1923 1837 1796 1776 1838 1704 1662 1639 1599 1575 1508 1524 1555 1576 1556 1567 1477 1519 1488 1462 1435 1434 1401 1412 1400 1384 1371 1341 1385 1413 1424 1414 1386 1326 1306 1305 1269 1298 1311 1260 1215 1204 1179 1160 1161 1137 1146 1151 1187 1205 1206 1234 1241 1216 1230 1235 1236 1217 1207 1208 1199 1218 1231 1282 1312 1324 1273 1318 1333 1368 1327 1328 1365 1404 1403 1415 1402 1437 1445 1394 1436 1457 1478 1531 1520 1479 1489 1509 1539 1584 1611 1685 1720 1893 1798 1686 1652 1670 1687 1671 1761 1721 1612 1540 1525 1492 1491 1521 1490 1480 1446 1447 1438 1463 1493 1510 1526 1481 1550 1628 1640 1585 1527 1494 1495 1464 1439 1416 1396 1376 1352 1360 1348 1359 1395 1405 1426 1458 1425 1372 1369 1358 1347 1283 1261 1274 1329 1353 1378 1387 1427 1448 1440 1406 1377 1465 1511 1663 1569 1568 1532 1541 1600 1613 1641 1707 1733 1734 1895 1780 1924 1993 2075 2110 1992 1951 1894 1865 1866 1779 1778 1799 1840 1732 1722 1746 1777 1839 1864 2029 2048 2109 2030 2074 2178 2222 2313 2440 2441 2467 2407 2346 2250 2543 2578 2510 2577 2758 2815 2862 2736 2816 2787 2647 2666 2737 2738 2788 2626 2511 2581 2580 2579 2487 2469 2486 2468 2377 2347 2146 2111 1925 1952 2049 2112 2223 2050 2179 2076 2113 2051 1995 1996 1867 1926 1994 1800 1586 1557 1528 1533 1512 1449 1417 1361 1330 1319 1308 1307 1284 1275 1242 1190 1165 1131 1061 1079 1002 1112 976 882 905 1060 1025 1108 1102 1037 988 945 933 890 853 861 881 917 880 842 834 823 824 802 781 769 760 740 708 717 770 754 654 639 677 676 653 707 753 768 780 801 814 822 841 860 859 833 813 809 787 759 779 786 778 800 785 777 637 651 652 674 689 638 706 675 627 600 574 573 599 598 616 597 590 572 565 555 556 546 523 516 524 512 525 557 539 532 533 547 527 518 526 517 504 493 494 495 496 505 506 507 508 509 548 575 617 591 576 540 519 480 498 497 490 486 479 474 433 420 432 446 454 465 453 460 445 459 458 464 439 412 411 419 425 457 452 444 436 443 451 442 435 430 422 431 423 404 387 391 390 396 407 417 429 416 415 406 395 377 385 389 386 379 378 373 374 356 357 349 342 329 330 320 336 343 350 388 392 397 408 409 424 437 438 418 410 393 371 364 358 337 321 344 365 359 338 322 323 316 317 269 268 259 255 209 215 225 199 182 183 184 185 186 200 250 271 262 249 239 261 306 297 280 270 260 295 296 309 360 351 339 331 310 281 311 307 324 353 346 345 352 380 398 399 381 366 375 367 368 372 400 401 402 340 382 332 325 312 272 244 243 235 253 252 284 283 282 251 240 227 193 226 216 201 170 118 110 151 152 119 96 30 25 79 120 127 140 163 158 153 132 111 104 103 80 51 38 44 65 88 97 121 133 134 122 123 105 143 142 141 176 187 202 210 228 347 383 426 447 487 481 488 500 482 528 640 601 577 491 461 455 421 427 394 369 384 466 478 499 578 618 529 741 868 883 934 1003 1080 1148 1166 1209 1243 1270 1285 1293 1313 1331 1334 1370 1466 1496 1428 1429 1418 1388 1450 1497 1498 1602 1558 1551 1601 1642 1653 1688 1723 1762 1724 1747 1801 1819 1841 1781 1842 1896 1927 2077 2201 2200 2225 2348 2180 2147 2224 2251 2378 2582 2705 2583 2687 2442 2470 2488 2667 2739 2932 2949 2985 2984 3001 2993 2969 2889 2839 2915 2921 2888 2863 2789 2920 2941 2914 2948 3054 3168 3118 3062 3039 3012 3034 3061 3148 3149 3167 3251 3267 3181 3195 3063 3080 3064 3035 3013 3000 2958 2983 3021 3065 3105 3150 3151 3119 3066 3095 3106 3152 3170 3183 3236 3199 3198 3197 3269 3468 3553 3575 3530 3428 3337 3299 3338 3317 3429 3430 3554 3616 3596 3677 3792 3756 3724 3644 3693 3645 3661 3710 3769 3814 3799 3813 3872 3900 3909 3948 4000 3899 3964 4066 4013 3908 3823 3791 3755 3744 3692 3660 3506 3484 3467 3411 3379 3298 3268 3297 3253 3221 3196 3169 3136 3182 3252 3284 3392 3336 3410 3466 3552 3574 3754 3812 3890 3918 3819 3790 3675 3594 3595 3643 3676 3709 3723 3743 3768 3805 3871 3935 3990 4065 4099 4146 4178 4157 4136 4123 4124 4091 4137 4147 4125 4194 4193 4205 4204 4225 4217 4224 4243 4192 4216 4223 4315 4314 4370 4365 4349 4316 4293 4294 4274 4275 4265 4295 4309 4257 4244 4245 4266 4276 4296 4317 4357 4400 4409 4417 4423 4440 4448 4457 4462 4472 4549 4521 4550 4539 4449 4441 4428 4442 4390 4358 4350 4339 4330 4318 4297 4298 4277 4267 4278 4230 4179 4158 4159 4148 4154 4126 4107 4116 4085 4067 4028 4014 3974 3919 3880 3846 3854 3901 3975 4029 4053 4076 4043 4054 4044 3965 3976 4001 3991 3926 3891 3861 3873 3881 3977 4021 4068 4109 4170 4169 4100 4092 4108 4127 4155 4149 4160 4180 4206 4218 4246 4268 4340 4359 4401 4391 4429 4458 4463 4473 4479 4464 4450 4424 4402 4381 4410 4411 4474 4485 4497 4510 4660 4638 4643 4728 4732 4838 4872 4887 4928 4959 4939 4996 5011 5121 5122 5140 5160 5214 5197 5190 5130 5079 5068 5012 4997 4960 4975 4918 4846 4839 4826 4815 4787 4772 4733 4695 4682 4676 4630 4613 4598 4599 4574 4551 4498 4465 4418 4412 4403 4319 4247 4248 4138 4069 4030 3992 3949 3993 3936 3882 3847 3834 3816 3920 4031 4110 4161 4207 4279 4351 4382 4352 4360 4341 4320 4331 4299 4280 4226 4181 4162 4139 4111 4128 4129 4117 4101 4093 4077 4047 4033 4046 4032 4055 4045 4002 3978 3921 4015 3979 3966 3950 3937 3951 3927 3874 3840 3757 3620 3681 3663 3713 3745 3556 3619 3599 3646 3598 3662 3618 3617 3597 3680 3712 3782 3770 3815 3793 3694 3678 3711 3679 3576 3555 3485 3507 3531 3469 3318 3153 3067 3014 2970 3184 3237 3238 3380 3443 3393 3358 3222 3154 3223 3285 3412 3286 3270 3200 3068 3023 3015 3016 3002 2987 3003 3024 3069 3107 3121 3120 3185 3360 3359 3413 3532 3444 3394 3395 3470 3533 3600 3508 3445 3396 3381 3287 3239 3240 3171 3137 3096 3097 3122 3138 3201 3241 3271 3301 3319 3300 3339 3340 3397 3398 3446 3486 3647 3664 3771 3758 3736 3682 3534 3432 3414 3431 3361 3302 3224 3203 3202 3186 3155 3124 3123 3071 3040 3070 3025 2994 2962 2890 2903 2923 2951 2961 2960 2959 2986 2971 2922 2841 2760 2759 2627 2740 2840 2873 2916 2950 3022 3081 2902 2688 2668 2604 1897 1672 1451 1287 1286 1244 1038 1048 1049 1050 1062 1091 1092 1081 1063 1082 1093 1083 1064 1094 1004 918 870 963 891 869 742 619 771 815 843 892 906 935 991 1033 1032 1031 1010 1009 1008 1020 1030 1103 1109 1069 1044 1043 1042 1068 1053 1041 1019 1029 1040 1052 1067 1115 1132 1155 1167 1183 1194 1211 1210 1182 1193 1219 1253 1245 1246 1232 1212 1223 1254 1322 1314 1309 1222 1192 1154 1156 1149 1084 1066 1051 1028 1007 979 990 1006 1018 1039 1065 1027 1005 999 989 978 977 1026 1095 1127 1138 1128 1139 1153 1191 1362 1407 1482 1552 1354 1419 1430 1499 1500 1522 1614 1643 1673 1615 1629 1577 1559 1514 1513 1483 1484 1472 1441 1431 1380 1379 1355 1342 1373 1363 1397 1408 1467 1452 1468 1515 1560 1561 1562 1570 1589 1604 1588 1587 1603 1617 1616 1630 1644 1675 1708 1726 1737 1748 1764 1736 1725 1690 1674 1654 1689 1735 1782 1763 1802 1803 1783 1784 1804 1843 1844 1845 1868 1928 1999 1998 2079 2078 2052 1997 1977 1898 2114 2286 2226 2148 2080 2081 2082 2031 1953 1899 1869 1846 1847 1870 1848 1820 1738 1710 1709 1677 1676 1664 1645 1631 1655 1665 1666 1678 1691 1692 1656 1657 1711 1727 1712 1693 1679 1658 1648 1635 1619 1606 1593 1592 1605 1647 1646 1632 1633 1634 1618 1590 1591 1578 1542 1534 1579 1620 1753 1788 1808 1986 2057 1940 1960 1941 1879 1855 1825 1789 1826 1827 1857 1856 1909 1910 1962 1961 2058 2037 2085 2157 2158 2120 2209 2208 2260 2293 2323 2355 2356 2387 2415 2357 2324 2233 2294 2261 2234 2235 2262 2263 2295 2264 2237 2236 2210 2184 2123 2159 2122 2121 2089 2088 2087 2086 2059 2060 2008 2009 2038 2039 2061 2090 2160 2185 2161 2162 2124 2091 2092 2062 2012 2011 2010 1963 1964 1943 1942 1911 1880 1830 1831 1813 1791 1812 1811 1829 1828 1809 1810 1790 1769 1660 1594 1580 1607 1621 1622 1714 1728 1742 1754 1770 1756 1755 1743 1744 1715 1729 1771 1792 1814 1832 1858 1881 1882 1914 1968 1967 1945 1913 1944 1912 1966 1965 2040 2063 2093 2126 2125 2163 2186 2211 2265 2266 2298 2297 2296 2326 2327 2328 2329 2360 2392 2391 2418 2745 2772 2773 2774 2805 2804 2829 2830 2831 2806 2775 2747 2746 2726 2713 2714 2727 2728 2748 2776 2777 2749 2729 2730 2715 2716 2717 2696 2682 2658 2659 2660 2641 2620 2595 2568 2596 2621 2622 2597 2570 2569 2534 2535 2503 2502 2533 2501 2500 2532 2567 2594 2619 2640 2639 2618 2617 2638 2657 2656 2681 2695 2694 2693 2680 2679 2655 2636 2637 2616 2615 2563 2528 2529 2564 2592 2593 2566 2565 2530 2531 2499 2478 2479 2480 2481 2482 2459 2458 2457 2456 2426 2398 2397 2364 2334 2333 2302 2271 2301 2332 2300 2331 2361 2394 2422 2423 2395 2362 2363 2396 2424 2425 2455 2454 2477 2453 2452 2421 2420 2498 2419 2393 2330 2299 2267 2238 2268 2269 2270 2240 2239 2212 2188 2213 2214 2241 2242 2243 2244 2217 2193 2192 2216 2215 2191 2190 2189 2167 2166 2165 2187 2164 2127 2128 2095 2094 2064 2041 2042 2013 2014 2043 2065 2096 2129 2097 2066 2044 2067 2068 2069 2100 2099 2098 2131 2130 2168 2169 2170 2132 2133 2171 2172 2134 2135 2173 2195 2194 2218 2245 2246 2219 2220 2196 2175 2174 2136 2101 2176 2308 2369 2338 2307 2275 2306 2305 2274 2273 2272 2303 2304 2335 2365 2366 2336 2337 2367 2368 2401 2400 2399 2427 2428 2429 2430 2460 2483 2504 2536 2571 2598 2623 2644 2643 2642 2661 2662 2685 2698 2684 2683 2697 2719 2734 2754 2733 2718 2732 2731 2753 2781 2782 2838 2858 2837 2812 2811 2836 2857 2856 2886 2871 2855 2854 2833 2834 2835 2810 2779 2780 2752 2751 2750 2778 2809 2808 2807 2832 2853 2852 2851 2870 2885 3038 3045 3044 3058 3074 3059 3086 3101 3114 3113 3112 3100 3085 3099 3111 3126 3125 3110 3142 3160 3161 3175 3190 3191 3192 3177 3176 3162 3143 3127 3144 3163 3145 3128 3129 3130 3146 3165 3164 3178 3179 3194 3193 3212 3213 3232 3263 3278 3309 3279 3296 3310 3329 3350 3351 3407 3440 3455 3456 3482 3457 3458 3520 3567 3584 3609 3653 3671 3685 3686 3700 3718 3730 3739 3738 3750 3763 3762 3777 3786 3776 3785 3775 3760 3761 3749 3748 3729 3717 3699 3698 3716 3697 3670 3652 3627 3628 3608 3519 3500 3566 3607 3626 3651 3668 3669 3684 3715 3667 3650 3625 3624 3623 3605 3606 3563 3564 3565 3543 3544 3518 3499 3481 3480 3498 3517 3542 3541 3516 3496 3497 3479 3454 3438 3439 3422 3406 3388 3374 3373 3372 3349 3371 3387 3405 3421 3420 3419 3404 3403 3386 3370 3348 3327 3328 3308 3295 3294 3277 3276 3261 3260 3259 3258 3257 3243 3244 3245 3246 3262 3247 3231 3211 3210 3230 3229 3228 3209 3189 3174 3173 3188 3187 3208 3227 3207 3206 3226 3242 3256 3255 3273 3288 3289 3290 3304 3303 3320 3321 3342 3343 3344 3322 3323 3306 3305 3291 3292 3274 3275 3293 3307 3324 3325 3326 3347 3369 3368 3346 3345 3367 3385 3402 3417 3418 3436 3452 3437 3453 3478 3495 3494 3477 3476 3451 3435 3434 3416 3401 3400 3383 3384 3366 3365 3364 3382 3399 3415 3433 3449 3450 3475 3492 3491 3474 3448 3447 3473 3490 3511 3512 3513 3538 3539 3514 3493 3515 3540 3562 3561 3582 3583 3622 3649 3666 3665 3648 3604 3603 3602 3581 3580 3579 3557 3558 3559 3560 3537 3536 3535 3510 3489 3472 3341 3083 3057 3084 2990 2967 2956 2930 2938 2918 2911 2883 2884 2868 2869 2850 2867 2849 2882 2898 2897 2828 2799 2827 2798 2826 2797 2769 2692 2710 2675 2711 2725 2744 2743 2724 2742 2800 2770 2801 2802 2803 2771 2712 2676 2653 2677 2678 2654 2635 2614 2591 2590 2589 2558 2494 2523 2559 2560 2524 2525 2495 2496 2526 2561 2562 2527 2497 2476 2451 2417 2390 2389 2359 2325 2358 2388 2450 2416 2449 2475 2557 2556 2555 2522 2521 2554 2588 2553 2552 2587 2611 2612 2613 2652 2634 2633 2651 2674 2632 2610 2586 2550 2551 2520 2519 2493 2492 2474 2448 2414 2386 2413 2447 2412 2411 2384 2385 2322 2321 2292 2259 2183 2084 2207 2258 2291 2353 2320 2354 2383 2446 2547 2548 2516 2517 2518 2549 2585 2609 2631 2630 2629 2608 2607 2650 2723 2796 2825 2848 2881 2824 2880 2879 2822 2847 2823 2795 2768 2691 2672 2673 2649 2628 2671 2606 2545 2408 2443 2444 2490 2472 2445 2512 2546 2513 2514 2515 2491 2473 2382 2351 2352 2318 2319 2232 2257 2256 2255 2254 2230 2290 2317 2350 2410 2409 2381 2380 2349 2316 2288 2289 2253 2229 2228 2205 2153 2152 2151 2150 2204 2252 2203 2181 2149 2116 2032 2001 1980 1981 2002 2053 2003 2004 2033 2083 2117 2154 2182 2155 2118 2156 2206 2231 2119 2056 2036 2035 1985 2006 2055 2054 2034 2005 1982 1983 1984 1956 1936 1955 1954 1935 1875 1876 1852 1853 1877 1906 1937 1957 1958 2007 1959 1908 1939 1938 1907 1878 1854 1807 1787 1768 1752 1741 1694 1695 1681 1667 1649 1659 1680 1713 1740 1751 1767 1786 1824 1806 1785 1766 1750 1739 1749 1765 1805 1823 1822 1821 1850 1873 1851 1874 1905 1934 1933 1932 1904 1872 1849 1871 1903 1902 1901 1900 1929 1930 1931 1979 1978 2000 2115 2202 2227 2287 2379 2315 2314 2471 2489 2544 2584 2605 2669 2721 2762 2763 2741 2764 2792 2791 2819 2818 2845 2875 2864 2844 2891 2817 2843 2790 2761 2842 2874 2933 2934 2942 2952 2943 2944 2953 2973 2963 2945 2935 2924 2936 2925 2904 2905 2906 2892 2893 2846 2793 2706 2689 2707 2765 2766 2865 2820 2821 2767 2722 2708 2709 2648 2670 2690 2794 2878 2896 2928 2909 2908 2877 2895 2927 2894 2866 2876 2907 2964 2937 2926 2917 2954 2989 3041 3027 2996 3005 3004 2988 2972 2995 3026 3017 3036 3072 3139 3156 3140 3042 3055 3157 3204 3225 3254 3272 3159 3158 3108 3073 3098 3082 3056 3043 3028 3037 3029 3006 2965 2955 2946 2910 2929 2966 2974 3007 3008 3018 3109 3141 3172 3205 3363 3362 3471 3487 3577 3621 3578 3488 3509 3601 3683 3696 3727 3737 3726 3714 3725 3695 3746 3794 3826 3841 3929 3862 3836 3842 3863 3884 3883 3940 4005 4079 4130 4048 4019 3984 3953 3954 3911 3902 3885 3892 3886 3912 3941 3985 4006 3955 3930 3913 3887 3864 3857 3848 3828 3827 3772 3747 3773 3783 3784 3728 3759 3774 3795 3807 3801 3806 3800 3818 3829 3843 3830 3831 3844 3837 3849 3865 3876 3893 3903 3914 3942 3923 3931 3932 3933 3943 3956 3967 4007 4024 4023 4059 4081 4060 4025 4008 3995 3994 3957 3944 3916 3915 3888 3858 3866 3877 3924 3945 3958 3986 3987 3996 4009 4020 3968 3988 3997 4010 4011 4037 4049 4071 4083 4150 4166 4210 4198 4187 4172 4143 4088 4082 4095 4165 4221 4233 4250 4232 4197 4186 4164 4142 4112 4105 4058 4080 4104 4141 4156 4171 4185 4220 4229 4209 4196 4228 4163 4087 4084 4070 4036 3952 3939 3983 3982 3922 3875 3855 3856 3825 3817 3824 3835 3910 4018 3938 3928 3981 4004 4017 4003 3980 4016 4035 4034 4057 4022 4056 4078 4086 4094 4102 4103 4118 4140 4183 4182 4227 4249 4219 4184 4195 4208 4231 4269 4300 4430 4499 4512 4511 4541 4540 4586 4614 4615 4653 4677 4703 4746 4816 4847 4873 5169 5230 5287 5299 5270 5304 5275 5259 5224 5193 5177 5123 5080 5056 5055 5041 5109 5151 5141 5054 5020 5021 4987 4950 4902 4864 4827 4788 4773 4747 4513 4542 4552 4559 4565 4568 4569 4587 4514 4480 4342 4321 4281 4258 4282 4310 4283 4322 4301 4284 4285 4343 4413 4419 4431 4486 4487 4459 4443 4371 4270 4259 4251 4234 4235 4324 4323 4383 4425 4466 4488 4493 4500 4531 4530 4560 4588 4607 4631 4632 4616 4575 4566 4553 4515 4451 4481 4494 4501 4543 4591 4590 4589 4622 4654 4683 4729 4803 4810 4790 4789 4748 4704 4696 4662 4672 4712 4661 4734 4776 4822 4828 4848 4951 4903 4904 4840 4829 4801 4802 4874 4888 5013 5057 5058 5014 4919 4849 4850 4929 5022 5015 5023 5090 5091 5110 5143 5161 5210 5216 5236 5241 5250 5276 5292 5303 5306 5302 5311 5330 5334 5366 5371 5382 5404 5423 5433 5432 5442 5449 5461 5469 5468 5479 5487 5494 5474 5447 5448 5413 5418 5414 5402 5403 5381 5377 5361 5360 5356 5333 5329 5322 5332 5355 5375 5397 5401 5400 5417 5436 5416 5380 5359 5354 5343 5348 5328 5310 5301 5300 5288 5264 5249 5245 5231 5198 5194 5153 5125 5089 5060 5059 5103 5102 5124 5131 5142 5152 5209 5240 5305 5291 5314 5389 5408 5407 5412 5430 5452 5465 5473 5466 5460 5431 5398 5395 5379 5374 5353 5370 5365 5399 5409 5453 5467 5471 5478 5503 5509 5508 5525 5529 5536 5548 5547 5594 5595 5566 5530 5559 5567 5554 5549 5531 5568 5604 5627 5638 5642 5637 5641 5611 5619 5587 5572 5571 5603 5610 5626 5618 5609 5596 5636 5635 5653 5652 5634 5633 5664 5673 5681 5716 5715 5723 5722 5714 5721 5710 5699 5741 5756 5788 5757 5746 5747 5789 5804 5884 5916 5902 5917 5941 5942 5903 5870 5850 5849 5830 5831 5820 5780 5758 5742 5724 5682 5683 5700 5743 5772 5790 5821 5842 5822 5791 5781 5773 5774 5725 5717 5701 5684 5665 5654 5655 5639 5605 5597 5598 5588 5573 5537 5516 5501 5492 5480 5481 5482 5454 5455 5462 5450 5475 5497 5496 5495 5517 5589 5574 5575 5576 5560 5561 5555 5562 5577 5578 5538 5526 5518 5483 5498 5502 5519 5510 5520 5582 5569 5583 5646 5645 5630 5621 5614 5607 5599 5590 5581 5563 5556 5541 5540 5532 5539 5550 5606 5580 5579 5612 5613 5644 5666 5628 5620 5629 5657 5686 5685 5727 5744 5810 5824 5793 5834 5760 5656 5643 5712 5711 5703 5702 5726 5736 5759 5782 5783 5809 5833 5845 5862 5871 5861 5808 5807 5806 5844 5860 5852 5859 5890 5891 5935 5921 5934 5955 5946 5920 5889 5908 5888 5843 5792 5748 5776 5775 5805 5823 5832 5851 5858 5881 5887 5886 5907 5944 5945 5966 5954 5965 5992 5991 5964 5943 5933 5919 5904 5905 5906 5885 5880 5857 5879 5878 5918 5963 5980 5981 5974 5986 6022 6013 6009 5973 5972 5953 5985 6004 6021 5961 5962 5952 5915 5869 5829 5819 5818 5803 5779 5771 5802 5817 5816 5877 5901 5914 5932 5951 5990 5997 6020 6054 6027 6019 6003 6033 6038 6071 6086 6077 6053 6037 6026 6018 6017 6032 5995 6012 6008 5996 5960 5971 5984 5939 5928 5912 5940 5913 5815 5766 5868 5929 5950 5930 5931 5899 5900 5875 5840 5828 5801 5767 5768 5778 5769 5740 5770 5848 5856 5876 5841 5787 5786 5734 5735 5709 5697 5698 5651 5593 5565 5515 5528 5535 5524 5553 5586 5592 5585 5602 5558 5552 5546 5500 5507 5491 5486 5472 5464 5459 5429 5422 5428 5444 5441 5435 5421 5427 5426 5425 5420 5439 5463 5488 5489 5490 5514 5506 5545 5557 5601 5632 5650 5733 5680 5663 5649 5625 5662 5827 5883 5979 6011 6025 6031 6016 6007 5994 5926 5874 5927 6002 6043 6052 6046 6070 6045 6063 6051 6042 6030 6041 6062 6068 6076 6069 6083 6090 6093 6103 6111 6114 6117 6116 6112 6109 6102 6097 6096 6056 6040 6024 6010 5993 5959 5814 5765 5755 5800 5838 5839 5847 5867 5911 5978 6059 6058 6092 6110 6106 6108 6113 6115 6105 6091 6067 6061 6075 6080 6087 6101 
