FILE: ca4663.tsp
Cities: 4663
Runs: 100

Tabu length: 200
Max iterations: 20000
Neighborhood size: 30000
Stop (no improvement): 5000

Best cost: 1400648
Average cost: 1.42746e+06
Execution time: 9544.28 seconds

Best route:
3008 3018 2887 2823 2766 2667 2636 2849 2936 2838 2894 2822 2592 2652 2651 2821 2923 2954 3028 3046 2999 3017 2953 3185 3159 3107 3078 2994 2952 2949 2943 2868 2782 2666 2577 2533 2509 2434 2488 2398 2370 2416 2468 2565 2407 2309 2139 2104 2297 2149 2205 2163 2276 2277 2399 2489 2490 2510 2578 2675 2783 2799 2869 2911 2711 2579 2461 2317 2299 2298 2383 2382 2408 2246 2177 2164 2150 2112 2130 2206 2189 2113 2140 2417 2123 2226 2247 2418 2475 2580 2555 2329 2318 2391 2453 2653 2581 2462 2355 2267 2216 2227 2131 2190 2278 2268 2165 2166 2124 2167 2168 2248 2255 2288 2300 2310 2301 2279 2256 2217 2319 2330 2511 2543 2582 2703 2655 2435 2372 2363 2371 2384 2332 2331 2342 2326 2280 2191 2151 2114 2048 2067 2049 2025 1963 1932 1931 1849 1850 1851 1867 1822 1804 1829 1830 1868 1903 1946 1989 2007 2026 2057 2058 2076 2096 2141 2192 2228 2400 2419 2436 2491 2583 2570 2603 2627 2656 2769 2712 2733 2770 2743 2744 2760 2839 2871 2888 2889 2937 2955 2915 2877 2771 2713 2745 2826 2862 2801 2800 2737 2724 2584 2593 2535 2492 2534 2476 2441 2385 2321 2320 2289 2269 2312 2333 2409 2311 2281 2249 2207 2169 2034 2068 1911 1964 2115 2039 2078 2193 2208 2229 2302 2343 2410 2477 2637 2628 2620 2715 2714 2676 2947 2905 2881 2956 3021 3127 2975 2996 3055 2967 2962 2968 2982 2983 2896 2924 2963 2957 3009 3014 3022 3060 3090 2988 3039 3002 3001 3113 3114 3149 3242 3368 3315 3328 3411 3490 3494 3602 3541 3549 3557 3568 3548 3556 3574 3435 3357 3487 3467 3424 3376 3089 3065 2914 2768 2870 2946 2995 3088 3030 3048 3097 3096 3141 3169 3074 3038 2913 3020 2825 2742 2654 2824 2912 2786 2767 2785 2784 2895 3013 3019 3064 3054 3148 3300 3384 3356 3235 3410 3527 3537 3614 3518 3508 3478 3423 3337 3327 3385 3434 3454 3479 3538 3573 3621 3710 3757 3811 3799 3729 3726 3733 3645 3849 3867 3903 3921 3938 3951 4257 4337 4327 4321 4253 4279 4299 4306 4177 4053 4000 4001 3987 3988 3936 3915 3993 3952 3943 3925 3904 3881 3843 3825 3714 3926 3962 3937 3963 4093 4119 3977 3932 3978 3953 3989 4032 3994 4021 3995 3964 3944 3883 3907 3911 3954 3971 3922 3955 3946 4084 4094 4114 4149 4167 4173 4180 4194 4201 4213 4225 4267 4243 4182 4155 4113 4112 4089 4083 4070 4054 4038 4105 4111 4127 4132 4165 4274 4251 4293 4357 4380 4368 4323 4291 4254 4232 4215 4216 4202 4195 4186 4179 4163 4150 4130 4117 4077 4107 4156 4217 4210 4241 4301 4292 4236 4178 4175 4172 4085 3956 3947 3749 3727 3821 4046 4017 4031 3981 3945 4008 4042 4061 4118 4066 3982 3965 3983 3864 3812 3774 3528 3491 3638 3672 3763 3776 3775 3793 3884 3924 3966 4358 4365 4383 4385 4387 4389 4395 4417 4437 4469 4533 4480 4453 4445 4425 4419 4407 4429 4441 4442 4447 4436 4443 4432 4448 4446 4449 4450 4455 4465 4470 4463 4472 4473 4482 4476 4479 4481 4484 4485 4486 4500 4511 4516 4521 4525 4530 4520 4523 4512 4501 4495 4489 4491 4496 4475 4474 4468 4456 4488 4492 4524 4505 4502 4513 4517 4528 4539 4546 4557 4562 4566 4582 4592 4594 4614 4641 4633 4619 4600 4587 4586 4583 4585 4581 4575 4577 4569 4564 4560 4550 4548 4565 4573 4576 4553 4544 4538 4535 4509 4527 4534 4567 4570 4568 4579 4578 4580 4572 4607 4615 4625 4616 4624 4632 4629 4636 4639 4642 4643 4605 4598 4599 4532 4514 4467 4462 4452 4424 4427 4464 4418 4413 4408 4403 4384 4381 4423 4439 4431 4435 4471 4504 4561 4597 4595 4613 4637 4644 4645 4651 4658 4650 4647 4635 4631 4621 4589 4593 4556 4545 4542 4549 4552 4559 4602 4603 4529 4522 4478 4421 4412 4415 4396 4375 4353 4350 4344 4345 4336 4333 4326 4316 4339 4320 4297 4281 4273 4248 4266 4256 4287 4296 4304 4310 4317 4319 4356 4348 4349 4371 4373 4367 4362 4360 4351 4343 4352 4335 4330 4311 4308 4302 4303 4300 4314 4331 4309 4325 4312 4272 4265 4247 4240 4231 4224 4220 4209 4200 4205 4219 4230 4239 4262 4271 4276 4255 4270 4315 4318 4322 4338 4342 4332 4329 4313 4285 4261 4235 4185 4259 4298 4307 4290 4252 4249 4238 4233 4229 4223 4288 4227 4228 4222 4212 4204 4184 4170 4139 4116 4098 4069 4049 4015 3970 3986 4016 3998 4065 3841 3888 3887 3942 3910 3941 3980 4059 4101 4123 4141 4214 4190 4188 4166 4158 4153 4145 4147 4159 4164 4160 4142 4143 4125 4124 4109 4090 4091 4063 4043 4028 4027 4041 4014 3969 3979 3990 3960 3991 4024 3996 3959 4013 4012 4097 4140 4138 4133 4129 4162 4181 4197 4211 4275 4245 4250 4264 4280 4359 4361 4376 4379 4409 4402 4399 4397 4398 4400 4401 4405 4420 4386 4414 4515 4518 4499 4483 4494 4498 4493 4510 4519 4506 4466 4460 4458 4457 4451 4497 4540 4444 4440 4438 4434 4428 4547 4612 4634 4623 4620 4660 4656 4652 4640 4628 4591 4531 4433 4508 4430 4388 4366 4258 4196 4122 4052 4134 4144 4148 4135 4244 4203 4183 3992 3940 3687 3626 3669 3668 3661 3558 3511 3577 3598 3673 3605 3610 3674 3748 3851 3781 3741 3758 3800 3822 3782 3742 3706 3670 3635 3611 3675 3676 3711 3734 3830 3831 3832 3826 3823 3814 3809 3834 3934 3976 4269 4193 4234 4260 4340 4391 4426 4378 4370 4346 4347 4295 4289 4286 4284 4191 4192 4206 4198 4237 4199 4136 3918 3898 3874 3837 3817 3777 3801 3844 3766 3691 3657 3653 3652 3679 3690 3716 3717 3735 3765 3759 3707 3678 3639 3617 3565 3499 3473 3448 3498 3559 3585 3616 3651 3712 3699 3688 3677 3627 3562 3495 3480 3380 3388 3402 3348 3312 3266 3238 3155 3132 3263 3262 3381 3458 3439 3426 3463 3497 3543 3492 3457 3456 3425 3369 3401 3415 3406 3331 3311 3418 3468 3659 3629 3609 3597 3591 3552 3462 3461 3387 3310 3180 3186 3174 3187 2971 3012 2991 3050 3061 3123 3203 3214 3237 3181 3204 3205 3197 3250 3347 3322 3284 3232 3207 3206 3145 3115 3005 2893 2875 2835 3080 2984 2892 2780 2645 2589 2616 2738 2720 2699 2926 2920 2846 2774 2773 2689 2625 2550 2671 2560 2450 2286 2351 2449 2575 2574 2607 2615 2624 2644 2663 2707 2762 2698 2729 2708 2795 2919 2900 2959 2878 3011 2845 2789 2834 2891 2899 3024 3068 3153 3154 3246 3261 3358 3429 3438 3496 3752 3885 3913 4037 4152 4278 4328 4363 4277 4171 4161 4263 4226 4128 3949 3890 3551 3379 3366 3260 3202 3099 3131 3196 3231 3245 3386 3342 3283 3256 3075 3033 2990 2898 2833 2779 2670 2697 2706 2778 2808 2951 2918 2754 2813 2950 3023 3067 3110 3138 3171 3179 3032 2970 2925 2976 3004 2977 2897 2777 2749 2748 2669 2623 2614 2662 2681 2688 2696 2680 2668 2661 2788 2753 2747 2728 2794 2969 2938 2884 2906 2787 2853 2772 2695 2660 2642 2573 2521 2530 2559 2438 2389 2325 2307 2285 2513 2529 2641 2632 2659 2866 3098 3109 3144 3455 3948 4174 4246 4268 4334 4305 4341 4364 4137 3897 3780 3728 3667 3615 3472 3399 3163 3151 3130 2605 2717 2694 2631 2601 2604 2613 2727 2600 2586 2558 2549 2500 2716 2752 2874 3003 3170 3213 3227 3295 3377 3604 3701 3650 3939 4283 4372 4374 4377 4390 4411 4454 4507 4536 4551 4563 4601 4626 4609 4608 4648 4649 4654 4661 4659 4655 4657 4653 4638 4630 4588 4404 4461 4487 4541 4558 4596 4590 4543 4537 4584 4610 4627 4646 4662 4663 4611 4617 4618 4622 4606 4604 4555 4571 4574 4554 4526 4503 4490 4459 4410 4369 4393 4392 4406 4477 4422 4416 4394 4382 4355 4282 4242 4187 4208 4189 3850 3794 3789 4022 4039 4120 4102 4099 4009 3870 3916 3876 3889 3912 3928 3927 3896 3788 3833 3836 3829 3813 3779 3771 3722 3705 3689 3641 3633 3607 3594 3576 3575 3550 3542 3519 3504 3444 3509 3529 3595 3603 3593 3378 3341 3318 3255 3265 3317 3352 3340 3329 3339 3338 3316 3281 3259 3236 3192 3162 3150 3040 3108 3091 3049 2989 2964 2890 2840 2776 2719 2810 2704 2677 2657 2638 2594 2512 2442 2422 2480 2421 2412 2420 2345 2322 2210 2152 2179 2105 2271 2292 2328 2304 2291 2327 2387 2411 2464 2518 2493 2437 2517 2479 2544 2566 2536 2386 2392 2478 2463 2344 2373 2334 2290 2084 2071 2027 2052 2051 2083 2125 2178 2303 2270 2230 2209 2170 2132 2097 2050 1976 1965 1996 1977 1990 1891 1813 1795 1853 1842 1824 1852 1836 1841 1762 1733 1730 1749 1779 1769 1754 1708 1681 1629 1648 1666 1671 1677 1720 1719 1748 1768 1798 1823 1835 1890 1913 1941 1912 1933 1956 1947 1922 1894 1883 1761 1724 1714 1701 1729 1715 1683 1657 1652 1644 1600 1617 1640 1647 1707 1696 1686 1676 1660 1653 1635 1593 1573 1559 1560 1549 1506 1586 1572 1554 1548 1522 1511 1510 1497 1529 1538 1547 1553 1599 1592 1634 1646 1633 1598 1591 1558 1546 1521 1486 1474 1470 1463 1438 1425 1412 1403 1298 1321 1329 1276 1285 1352 1376 1401 1443 1448 1464 1426 1413 1384 1353 1402 1439 1449 1456 1466 1480 1482 1475 1512 1594 1618 1601 1608 1602 1555 1567 1533 1498 1503 1513 1504 1499 1619 1603 1556 1604 1587 1534 1493 1476 1473 1457 1452 1453 1431 1392 1404 1377 1393 1408 1435 1440 1450 1467 1530 1539 1550 1620 1678 1577 1540 1535 1561 1578 1568 1574 1562 1575 1551 1579 2036 2035 2053 2117 2091 2085 2079 2116 2374 2413 2469 2494 2545 2481 2537 2571 2678 2686 2629 2595 2639 2585 2470 2443 2218 2231 2153 2118 2092 2093 2086 2094 2180 2133 1966 1895 1869 1854 1831 1805 1609 1588 1580 1569 1589 1621 1679 1667 1654 1661 1672 1687 1709 1725 1770 1772 1780 1785 1892 1948 1968 1997 1916 1896 1923 1915 1914 1967 2134 2171 2414 2424 2394 2393 2423 2444 2495 2567 2679 2734 2802 2827 2882 2965 3041 3010 3056 3082 3121 3143 3142 3152 3177 3194 3230 3287 3282 3271 3272 3294 3273 3243 3218 3083 3066 3031 2958 2883 2818 2803 2804 2819 2293 2194 2257 2294 2496 2841 2863 2850 2857 2556 2611 2658 2872 2851 2852 2858 2859 2805 2811 2806 2725 2526 2596 3397 3693 4154 4157 3764 2313 1924 2008 2087 2182 2233 2261 2211 1897 1884 1898 1857 1858 1825 1816 1856 1935 1942 1906 1979 1905 1934 2002 2028 1917 1801 1904 1978 1874 1843 1787 1723 1764 1815 1958 2060 2081 2072 2061 2054 2323 2375 2099 2154 2181 2250 2260 2259 2282 2272 2258 2219 2232 2195 2041 2012 2019 2037 2040 2069 2135 2098 2080 2059 1957 1949 1969 1855 1832 1814 1806 1796 1773 1771 1716 1702 1721 1726 1734 2095 1786 1763 1750 1735 1751 1727 1717 1722 1703 1704 1698 1699 1663 1697 1688 1673 1642 1581 1622 1645 1662 1631 1656 1668 1655 1641 1630 1610 1541 1459 1469 1409 1354 1314 1305 1299 1245 1259 1244 1210 1193 1205 1211 1212 1070 939 923 1023 1047 1054 1127 1126 1101 1100 1173 1218 1168 1204 1151 1141 1117 1125 1167 1172 1150 1092 1085 1074 1003 1030 1073 979 1002 1001 1084 1116 1203 1202 1201 1200 1166 1209 1468 1494 1500 1563 1423 1422 1394 1304 1123 1099 1090 1082 1060 995 1036 1008 964 957 921 877 1053 1052 1068 1072 1091 1113 1114 1069 1045 1000 1046 1124 1149 1171 1292 1277 1251 1208 1187 1192 1115 1083 978 949 965 990 969 977 968 871 828 842 788 742 720 878 879 843 808 799 800 618 617 560 551 648 810 844 809 829 859 872 912 938 1029 1037 1009 935 811 873 812 789 649 638 574 565 510 515 552 536 537 489 474 452 453 442 438 446 425 483 516 662 706 650 768 780 790 813 854 893 845 781 886 880 913 922 927 906 860 814 769 676 677 707 664 651 599 598 567 663 628 566 517 498 443 422 399 377 370 369 378 390 379 331 332 333 405 454 538 575 539 490 553 639 665 887 830 861 888 881 862 874 666 743 652 587 531 504 529 545 491 456 455 434 398 391 371 360 346 406 319 304 300 277 279 290 260 305 265 272 238 218 221 201 198 176 148 140 135 121 116 122 130 141 167 306 310 327 352 407 400 372 426 430 401 357 363 373 380 408 411 428 450 465 435 449 477 505 457 476 494 475 493 511 492 500 499 540 546 619 607 608 620 708 801 815 894 958 970 1038 1049 1048 996 1075 1102 1118 1152 1174 1222 1286 1306 1330 1278 1395 1428 1436 1429 1477 1444 1419 1418 1385 1410 1396 1414 1366 1361 1331 1293 1322 1267 1223 1128 1055 1010 914 966 997 1024 936 1011 1076 1252 1239 1219 1175 1142 1137 1119 1061 991 1039 816 863 897 940 928 980 971 981 1004 941 855 831 519 512 518 501 541 687 622 588 640 709 754 882 621 576 568 347 316 296 311 249 230 209 189 180 174 149 159 164 177 181 205 222 273 274 381 418 436 461 484 495 554 532 547 580 600 667 791 865 883 864 959 1056 1062 982 942 998 992 1031 1071 1129 1153 1195 1228 1194 1246 1397 1346 1294 1224 1213 1274 1332 1355 1432 1542 1623 1595 1454 1495 1487 1460 1505 1501 1531 1514 1515 1523 1524 1536 1516 1565 1590 1625 1612 1583 1584 1643 1651 1674 1650 1649 1632 1658 1636 1611 1624 1557 1582 1564 1680 1799 1774 1743 1710 1689 1718 1711 1669 1690 1817 1788 1755 1736 1781 1782 1802 1807 1808 1818 1870 1859 1860 1871 1907 1861 1862 1872 1875 1863 1844 1700 1833 1837 1876 1919 1926 1925 1937 1936 1918 1991 1980 1992 1959 1981 2009 2062 2073 2106 2142 2107 2063 2042 2070 1998 1970 1943 1886 1927 1899 1865 1845 1885 1864 1789 1809 1810 1797 1756 1737 1693 1614 1627 1527 1455 1471 1421 1382 1374 1360 1325 1342 1248 1236 1270 1301 1317 1312 1263 1269 1253 1254 1231 1179 1206 1188 1262 1281 1287 1311 1341 1391 1373 1340 1310 1300 1280 1316 1297 1268 1225 1261 1177 1214 1240 1260 1279 1275 1295 1323 1336 1308 1333 1356 1445 1461 1446 1415 1405 1386 1347 1367 1378 1343 1309 1337 1344 1338 1334 1324 1296 1315 1339 1350 1372 1371 1380 1381 1390 1406 1420 1389 1379 1359 1349 1358 1363 1362 1348 1357 1368 1370 1388 1387 1398 1417 1416 1427 1434 1424 1433 1447 1451 1485 1518 1537 1571 1613 1626 1605 1596 1570 1543 1552 1525 1488 1517 1526 1507 1489 1496 1483 1484 1441 1411 1369 1307 1229 1063 1025 1093 1196 1230 1247 1176 1154 1094 1058 1057 929 895 710 641 792 983 1138 1103 1064 1040 1104 1130 1178 1105 1077 1013 1026 972 984 915 907 908 856 793 654 711 653 629 688 668 721 817 925 951 1012 950 924 898 875 755 577 548 520 581 533 466 462 467 582 578 589 590 722 832 723 669 623 555 506 549 642 513 583 655 678 732 818 833 846 899 944 926 952 943 967 985 1078 1155 1162 1106 1086 1107 1143 1169 1158 1180 1215 1255 1226 1232 1241 1249 1256 1283 1282 1288 1313 1284 1271 1131 1144 1032 1033 999 1027 1014 1005 1041 1087 1108 1132 1145 1109 1079 1015 987 918 931 973 988 1016 1159 1302 1160 1065 1020 1019 1018 1017 974 953 937 916 932 901 902 849 850 869 837 715 700 699 698 714 738 737 683 657 658 632 645 659 605 584 604 603 602 609 631 644 681 696 682 697 713 727 726 736 763 785 774 764 786 836 835 876 848 821 820 804 773 762 761 772 771 784 783 746 745 744 735 725 692 693 680 694 695 673 672 671 656 630 643 624 670 691 712 724 734 733 759 760 794 802 795 803 819 868 857 834 847 867 884 896 889 900 930 946 986 945 909 866 782 756 757 770 758 690 689 679 601 591 556 521 502 542 569 485 507 561 543 550 522 534 570 585 579 562 503 523 468 469 524 525 470 478 593 610 702 716 728 729 684 703 717 685 674 612 611 471 509 508 526 463 451 439 431 423 402 382 361 374 395 444 440 437 396 384 383 320 307 297 298 308 280 261 257 262 253 250 242 223 213 254 263 266 258 299 309 337 334 335 312 342 336 321 343 353 393 375 386 409 385 392 419 447 479 472 636 572 530 558 704 798 777 730 637 458 486 514 563 596 661 740 741 826 778 840 806 934 904 858 731 827 767 752 705 615 559 488 482 464 445 420 413 433 459 473 528 427 414 415 416 404 417 421 397 362 345 339 366 365 389 355 325 317 364 388 403 394 350 301 328 349 424 448 487 497 564 481 441 480 496 354 412 432 429 387 344 338 322 282 281 255 259 246 231 211 202 233 219 214 267 283 348 323 313 284 268 314 324 285 286 251 243 239 206 203 227 195 192 215 234 240 224 193 183 182 184 216 235 236 264 302 291 287 269 275 270 315 329 303 292 278 276 244 237 225 212 199 186 158 153 152 157 166 171 175 207 185 170 169 165 160 156 161 150 151 145 142 136 133 127 123 113 126 134 146 154 172 190 217 187 188 196 228 293 318 340 356 367 295 294 271 247 194 155 128 143 168 173 144 124 114 111 109 106 72 77 88 96 91 110 112 118 117 120 137 139 147 178 208 252 226 197 179 162 131 105 108 104 101 78 66 49 62 46 45 54 55 68 95 103 100 93 90 87 71 79 82 86 89 81 74 76 92 80 70 69 52 50 61 65 48 53 59 42 39 32 33 40 35 41 34 36 63 85 97 94 119 125 129 115 107 98 99 83 75 67 43 56 38 31 28 26 13 22 7 6 2 1 4 3 5 10 8 15 17 24 21 20 23 19 18 11 9 16 12 14 25 27 29 30 37 44 47 60 64 51 58 57 73 84 102 132 138 163 204 229 248 326 341 289 256 210 191 200 220 232 241 245 288 330 358 359 376 351 368 410 460 535 573 807 753 675 606 616 597 647 841 961 1067 1022 947 911 905 948 994 1081 1121 1157 1190 1234 1237 1227 1221 1217 1199 1185 1186 1051 1028 1134 1140 1096 955 989 892 853 779 920 962 1088 1191 1097 1089 956 963 1098 1122 1135 1147 1136 1165 1148 1235 1351 1328 1258 1238 1400 1492 1695 1706 1732 1793 1889 1939 1994 1973 2004 2014 2197 2499 2599 2557 2548 2031 2029 2032 2045 2074 2539 2528 2483 2388 2346 2612 2198 2120 2089 2075 2055 2015 1961 1930 1812 1921 1840 1910 1848 1794 1940 1945 2046 1962 1988 1974 2005 2136 2090 2155 2284 2377 2520 2832 2831 2844 2860 2865 2864 2873 3505 3330 2830 2843 2829 2842 2828 2807 3346 2726 2917 2598 2547 2527 2498 2497 2482 2455 2445 2401 2376 2335 2314 2306 2812 2630 2538 2466 2454 2305 2283 2196 2324 2234 2143 2119 2065 2100 2077 2064 2088 2108 2044 2030 1987 1986 2020 2043 2003 1985 1929 1873 1826 1778 1712 1692 1790 1791 1901 1827 1775 1776 1767 1740 1713 1664 1659 1637 1665 1597 1606 1615 1638 1741 1728 1758 1759 1800 1828 1847 1888 1908 1909 1972 1993 2013 2021 2038 2000 1960 1952 1938 1879 1880 1881 1705 1628 1607 1472 1509 1616 1731 1753 1792 1902 1944 2022 2446 2144 2262 1882 1821 1803 1747 1760 1742 1694 1670 1685 1639 1576 1520 1481 1442 1320 1291 1273 1375 1365 1319 1266 1265 1303 1290 1233 1170 1216 1272 1198 1243 1220 1184 976 993 1035 1034 1112 1156 1164 1264 1364 1399 1437 1479 1491 1502 1519 1545 1585 1532 1528 1566 1508 1490 1478 1462 1458 1430 1327 1326 1345 1289 1139 1044 1163 1161 1021 1133 1111 1110 1066 1080 1050 1007 954 919 766 825 891 960 933 890 870 787 719 595 635 805 751 718 686 750 614 557 527 627 626 571 544 594 613 634 660 633 646 739 748 749 852 839 917 975 1043 1120 1250 1183 1042 903 797 776 765 796 701 775 586 592 625 747 822 838 823 851 824 885 910 1006 1059 1095 1146 1181 1197 1182 1189 1207 1242 1257 1318 1335 1383 1465 1407 1675 1684 1682 1691 1982 1744 1745 1765 1783 1544 1757 1766 1746 1738 1739 1752 1784 1819 1820 1811 1777 1951 1878 1877 1928 1971 1920 1887 1834 1866 1846 1839 1838 1983 1893 1900 1950 1984 1999 2572 2519 2425 2597 2621 2465 2546 2640 2916 3414 3244 3967 3908 4221 4324 4354 4086 3923 3715 3608 3510 3301 3436 3219 3226 3513 3646 3694 4078 4218 4294 3917 3700 3309 3302 3195 3178 3122 2761 2746 2793 2792 2622 2378 2010 2016 2017 2047 2011 2018 2023 2024 1953 1954 1995 1955 1975 2033 2056 2066 2001 2006 2082 2172 2587 2588 2718 2687 2606 2568 2501 2502 2121 2126 2127 2173 2235 2145 2156 2174 2157 2146 2109 2199 2336 2426 2540 2484 2447 2337 2439 2251 2175 2110 2236 2237 2238 2273 2348 2347 2427 2531 2705 2750 2514 2448 2364 2252 2200 2349 2356 2456 2457 2643 2471 2379 2263 2158 2201 2239 2365 2440 2264 2265 2357 2380 2485 2402 2350 2220 2159 2274 2315 2160 2147 2128 2221 2212 2213 2353 2352 2458 2561 2472 2287 2253 2101 2240 2102 2202 2203 2183 2184 2316 2358 2522 2359 2222 2185 2275 2338 2523 2590 2646 2814 2944 2908 2781 2626 2532 2354 2505 2504 2503 2617 2664 2700 2735 2721 2755 2907 3042 3034 3116 3198 3274 3333 3353 3323 3220 3251 3188 3069 2960 2961 3057 3105 3124 3117 3051 3070 3092 3025 3006 2972 2939 2909 2927 2921 2796 2722 2673 2562 2486 2551 2736 2672 2757 2756 2647 2608 2506 2507 2390 2395 2186 2148 2214 2215 2459 2451 2360 2161 2137 2308 2223 2361 2428 2403 2224 2162 2339 2396 2541 2366 2524 2525 2367 2266 2204 2225 2241 2242 2243 2429 2473 2516 2739 2867 2933 2932 2798 2759 2691 2554 2553 2552 2569 2684 2665 2820 2764 2763 2723 2648 2775 2930 2929 2997 3071 3189 3015 2928 2847 2809 2683 2618 2633 2515 2487 2609 2682 2758 2690 2790 2861 2901 2885 2902 2854 2903 2978 3084 3118 3156 3215 3285 3324 3359 3416 3427 3430 3469 3514 3520 3583 3622 3588 3530 3531 3623 3660 3636 3586 3532 3482 3474 3481 3440 3417 3382 3221 3253 3303 3343 3392 3437 3470 3483 3475 3544 3533 3612 3695 3662 3654 3637 3658 3708 3802 3795 3785 3784 3838 3865 3871 3803 3747 3736 3696 3767 3772 3786 3804 3852 3882 3905 4048 4036 3985 4004 4072 4023 3972 4018 3958 4002 4062 4082 4068 4056 3973 3968 3872 3845 3860 3818 3743 3744 3783 3891 4030 4073 4067 4071 4100 4087 4088 4079 4076 4033 4064 4034 4055 4060 4081 4092 4108 4096 4095 4115 4051 4047 4045 4020 4006 4026 4025 4029 4040 4044 4050 4010 4003 3902 3929 3933 3877 3950 3984 4019 4035 4080 4131 4207 4176 4168 4169 4151 4146 4126 4121 4104 4057 4075 4103 4110 4106 4074 4058 4005 4011 3997 3975 3906 3892 3815 3827 3835 3866 3899 3919 3930 3957 3974 3886 3900 3909 3893 3853 3862 3894 3920 3901 3895 3878 3873 3854 3858 3840 3819 3798 3739 3755 3778 3792 3773 3806 3846 3847 3761 3671 3704 3745 3769 3842 3859 3914 3931 3935 3961 3999 4007 3868 3869 3875 3879 3880 3863 3855 3816 3856 3848 3857 3820 3810 3807 3762 3684 3686 3740 3731 3725 3698 3751 3756 3730 3724 3582 3581 3564 3547 3546 3466 3555 3526 3525 3580 3619 3644 3632 3665 3703 3713 3760 3828 3805 3770 3768 3750 3719 3649 3601 3535 3516 3485 3453 3452 3503 3524 3521 3502 3489 3567 3590 3599 3628 3571 3600 3656 3683 3738 3655 3640 3692 3791 3754 3797 3861 3839 3790 3723 3643 3664 3631 3618 3570 3540 3539 3534 3506 3587 3560 3630 3697 3663 3625 3613 3682 3737 3642 3606 3718 3753 3808 3824 3796 3702 3681 3680 3648 3647 3624 3592 3596 3634 3589 3578 3553 3512 3459 3449 3445 3441 3450 3476 3545 3569 3563 3522 3500 3431 3428 3460 3451 3484 3515 3566 3523 3493 3464 3420 3395 3371 3349 3298 3305 3248 3200 3325 3313 3344 3394 3412 3393 3419 3370 3319 3304 3296 3267 3172 3133 3052 2992 2940 2931 2922 2979 2985 3111 3134 3164 3199 3222 3247 3297 3239 3100 2886 2765 2797 2855 2948 2986 3072 3135 3101 3139 2993 3043 3085 3216 3208 3182 3240 3288 3289 3372 3275 3209 3290 3345 3403 3413 3488 3421 3407 3360 3276 3254 3183 3252 3367 3361 3257 3268 3320 3373 3432 3442 3389 3443 3465 3404 3334 3269 3306 3350 3383 3408 3433 3362 3335 3249 3270 3291 3332 3363 3405 3446 3477 3501 3561 3584 3536 3579 3554 3517 3486 3447 3422 3409 3396 3354 3308 3307 3374 3400 3292 3233 3173 3146 3229 3175 3228 3165 3106 3026 3044 3053 3086 3073 3076 3103 2876 2730 2910 2945 3007 3128 3119 3102 3058 2941 2815 2674 2709 2340 2176 2254 2381 2138 2362 2692 2693 2701 2731 2751 2634 2649 2404 2244 2405 2415 2610 2591 2430 2103 2187 2295 2368 2431 2397 2369 2122 2296 2245 2111 2341 2188 2129 2433 2508 2474 2467 2460 2432 2406 2452 2732 2837 2880 2935 2981 3037 3016 3027 3112 3126 3147 3160 3157 3161 3211 3223 3210 3140 3087 3036 2987 2942 2904 2817 2710 2650 2602 2564 2542 2563 2576 2702 2791 2741 2740 2848 2685 2619 2635 2816 2836 2856 2934 2973 2980 3045 3059 3125 3062 3077 2998 2879 2974 3035 3093 3184 3258 3241 3277 3321 3364 3390 3398 3375 3326 3293 3201 3158 3190 3166 3167 3191 3224 3278 3286 3264 3212 3234 3279 3314 3299 3225 3176 3104 3137 3136 3120 3217 3081 3000 2966 3029 3063 3094 3095 3079 3365 3391 3685 3720 3787 3746 3732 3721 3709 3666 3620 3572 3507 3471 3355 3351 3336 3280 3193 3168 3129 3047 
