Best cost: 79420
Time: 6101.26
Route:
461 468 467 495 549 545 546 593 608 594 565 553 540 531 516 482 466 427 456 444 471 469 474 496 528 554 547 532 524 566 595 667 634 652 692 712 723 734 724 693 679 661 668 683 694 675 653 676 684 689 680 670 656 648 636 635 639 597 582 641 603 569 596 568 505 502 487 477 457 437 431 433 430 441 417 406 405 383 380 377 376 389 409 420 429 428 445 425 404 399 394 391 356 333 347 363 373 359 344 355 341 351 342 334 323 310 291 298 316 324 321 300 329 328 339 345 346 335 371 368 364 340 336 330 332 301 305 280 272 268 267 277 284 274 244 239 243 251 235 233 230 207 199 186 200 224 231 227 220 205 234 236 252 261 265 266 294 306 312 343 331 352 365 381 395 424 411 390 392 438 439 448 451 446 447 459 453 479 485 493 508 499 498 537 535 514 489 492 488 503 511 548 564 586 588 604 610 616 624 619 615 631 640 643 655 658 651 646 645 644 629 628 627 625 638 620 574 563 555 570 605 609 606 599 592 573 552 541 534 533 538 530 507 486 497 478 475 458 442 436 422 416 410 418 408 435 400 378 370 369 360 386 414 413 423 432 434 450 484 491 525 521 506 510 529 550 561 583 587 598 626 647 649 662 673 677 657 669 660 654 666 672 678 685 688 695 696 705 709 708 704 701 710 713 717 714 707 702 703 700 698 682 674 681 686 690 699 706 711 716 722 725 726 727 732 733 729 728 730 731 718 719 720 721 715 697 691 687 663 659 664 671 665 650 642 637 607 577 581 571 562 542 556 560 557 578 600 601 611 584 579 575 580 589 617 612 621 590 567 572 602 630 613 618 622 632 633 623 614 591 585 576 558 559 551 543 539 544 527 518 509 513 519 522 520 515 501 481 483 473 463 449 421 379 357 402 412 426 443 460 455 472 476 504 512 517 526 536 523 500 490 494 480 470 465 462 454 419 401 372 387 384 374 375 353 348 338 337 326 325 322 313 317 296 295 269 262 270 263 289 281 246 256 247 257 314 271 248 242 240 229 209 213 182 181 192 215 212 237 253 292 245 208 190 180 162 165 169 191 195 187 196 184 171 170 109 110 118 133 127 115 91 86 81 80 79 85 84 93 77 47 46 45 36 27 16 18 22 25 11 6 3 1 2 7 5 4 8 10 17 19 21 41 66 56 53 50 44 54 63 67 58 68 76 75 74 73 72 105 123 124 121 126 120 100 95 83 98 92 69 60 55 51 43 39 40 34 28 26 24 23 15 12 13 9 14 20 29 31 38 42 49 65 71 90 89 70 62 57 52 37 33 30 32 35 48 59 61 88 107 112 119 108 104 113 134 132 125 143 147 151 140 142 137 131 156 160 157 161 163 168 179 167 178 176 159 150 111 114 117 97 82 64 78 96 103 99 87 94 101 106 122 138 183 194 174 146 153 154 149 135 130 139 155 166 175 189 203 226 241 264 276 304 273 260 238 232 225 219 223 218 217 211 202 173 177 201 198 152 148 145 141 129 128 102 116 136 144 164 158 172 185 188 197 193 206 216 222 228 214 204 210 221 249 279 278 285 293 297 302 318 309 319 327 315 303 282 250 254 258 275 283 286 290 287 259 255 288 299 311 308 320 307 350 354 367 382 366 362 349 361 358 388 385 398 407 397 396 393 403 415 440 452 464 
