Best cost: 1299501
Time: 5498.71
Route:
4604 4606 4571 4574 4554 4503 4490 4459 4410 4393 4392 4369 4157 4154 3693 3397 3764 3414 2916 2640 2546 2465 2621 2597 2425 2519 2572 3244 3301 3436 3510 3608 3715 3923 4086 3908 3967 4221 4324 4354 4404 4461 4487 4541 4543 4558 4596 4590 4537 4526 4584 4610 4627 4646 4663 4662 4653 4657 4655 4659 4661 4654 4649 4648 4638 4630 4588 4608 4609 4626 4601 4563 4551 4536 4507 4454 4411 4390 4377 4364 4374 4372 4283 3939 3917 3700 3650 3701 3604 3728 3667 3615 3780 3897 4137 3948 4174 4341 4305 4334 4268 4246 4226 4263 4363 4277 4171 4161 4128 3949 3890 3551 3379 3366 3260 3202 3110 3138 3004 2976 2977 2897 2950 3023 3067 3099 3131 3196 3231 3245 3386 3342 3283 3256 3246 3261 3358 3429 3438 3496 3752 3885 4152 4037 3913 3659 3629 3609 3597 3591 3552 3468 3462 3461 3387 3310 3187 3174 3186 3180 3154 3153 3068 3024 2891 2834 2789 2643 2663 2707 2644 2624 2615 2698 2729 2762 2845 3011 2878 2959 2900 2919 2971 3012 2920 2926 2991 3050 3061 3123 3203 3214 3237 3311 3331 3418 3406 3415 3401 3425 3456 3511 3577 3626 3558 3661 3668 3669 3687 3673 3598 3605 3610 3674 3748 3741 3781 3851 3992 3940 4052 4135 4148 4144 4134 4122 4196 4258 4278 4328 4366 4388 4430 4508 4433 4531 4591 4628 4640 4652 4656 4660 4620 4623 4634 4612 4547 4540 4497 4451 4457 4458 4460 4466 4506 4519 4510 4542 4545 4556 4593 4589 4549 4552 4559 4603 4602 4621 4631 4635 4647 4650 4658 4651 4645 4644 4637 4613 4605 4643 4642 4639 4636 4632 4629 4625 4615 4607 4616 4624 4633 4641 4619 4614 4600 4594 4592 4582 4566 4583 4586 4587 4585 4581 4575 4577 4569 4564 4560 4562 4557 4546 4539 4528 4517 4513 4502 4505 4524 4492 4488 4456 4468 4474 4475 4496 4509 4491 4489 4495 4501 4512 4523 4534 4527 4535 4538 4553 4544 4548 4550 4573 4565 4576 4567 4570 4568 4579 4578 4580 4572 4533 4516 4511 4521 4525 4530 4520 4500 4486 4485 4484 4481 4479 4476 4482 4473 4472 4463 4470 4465 4455 4450 4449 4446 4448 4432 4443 4436 4447 4442 4441 4445 4429 4407 4419 4425 4453 4480 4469 4437 4417 4395 4383 4358 4365 4385 4387 4389 4403 4408 4413 4418 4464 4427 4424 4452 4462 4467 4514 4532 4598 4599 4595 4597 4561 4504 4471 4435 4431 4439 4423 4384 4381 4380 4368 4323 4267 4243 4225 4182 4155 4113 4112 4089 4083 4070 4054 4038 4105 4021 3995 3964 3944 3883 3907 3954 3971 3911 3922 3955 3946 4084 4094 4114 4149 4167 4173 4180 4194 4201 4213 4215 4254 4291 4232 4216 4202 4195 4186 4179 4163 4150 4130 4117 4107 4077 3947 3956 4085 4156 4217 4210 4241 4301 4292 4236 4178 4172 4175 4118 4066 4061 4042 4008 4031 4046 4017 3981 3945 3982 3965 3983 3966 3924 3884 3864 3812 3793 3775 3776 3763 3774 3672 3638 3528 3491 3821 3727 3749 3602 3494 3490 3541 3411 3328 3315 3242 3368 3549 3557 3568 3548 3556 3574 3435 3357 3487 3467 3424 3376 3434 3385 3327 3337 3423 3454 3479 3538 3573 3621 3614 3645 3733 3726 3729 3710 3757 3799 3811 3843 3881 3915 3936 3993 3943 3925 3904 3825 3714 3952 3926 3962 3937 3963 3977 3932 3978 3953 3989 3994 4032 4111 4127 4165 4132 4119 4093 4251 4274 4357 4293 4306 4177 4053 3988 3987 4001 4000 3951 3938 3921 3903 3867 3849 3787 3746 3732 3721 3709 3720 3666 3620 3572 3507 3471 3685 3684 3686 3762 3807 3810 3820 3740 3731 3725 3698 3751 3756 3730 3724 3582 3581 3564 3547 3546 3769 3842 3859 3841 3761 3745 3704 3671 3644 3619 3580 3525 3526 3555 3466 3375 3398 3326 3293 3201 3158 3190 3166 3167 3191 3224 3278 3286 3264 3212 3159 3185 3234 3279 3314 3299 3225 3176 3104 3137 3136 3120 3081 3217 3391 3365 3355 3351 3336 3280 3193 3168 3129 3047 3008 3018 3079 3095 3094 3063 3029 3000 2966 2936 2894 2822 2838 2849 2887 2823 2766 2667 2636 2417 2418 2475 2580 2555 2784 2895 3013 3019 3148 3300 3384 3527 3537 3518 3508 3478 3410 3356 3235 3169 3141 3096 3020 3097 3048 3030 3088 2995 2946 3065 3089 2914 2870 2768 2703 2655 2582 2543 2511 2435 2384 2371 2363 2372 2400 2419 2436 2491 2583 2409 2281 2311 2333 2312 2385 2289 2269 2320 2321 2492 2584 2593 2535 2534 2476 2441 2603 2570 2627 2656 2769 2712 2733 2770 2743 2744 2760 2800 2839 2871 2888 2862 2801 2737 2724 2745 2713 2771 2826 2889 2937 2877 2915 2955 3021 2956 2881 2905 2947 2975 2996 3127 3055 3113 2967 2962 2968 2982 3001 2983 3002 3114 3149 3090 3060 3022 3014 3009 2957 2963 2988 3039 2924 2896 2715 2620 2714 2676 2637 2628 2477 2410 2343 2302 2229 2208 2193 2078 2039 2115 1964 1911 2068 2034 2169 2249 2207 2228 2192 2141 2096 2076 2058 2057 2026 2007 1989 1946 1830 1829 1804 1822 1849 1850 1851 1867 1868 1903 1932 1931 1963 2025 2049 2067 2048 2114 2151 2191 2280 2331 2332 2342 2326 2319 2330 2279 2301 2310 2300 2288 2255 2248 2256 2217 2168 2167 2124 2166 2165 2268 2278 2190 2131 2227 2216 2267 2355 2462 2654 2742 2825 2913 3038 3074 3054 3064 2912 2824 2786 2767 2785 2653 2581 2453 2391 2318 2329 2247 2226 2123 2140 2113 2189 2206 2130 2112 2592 2652 2651 2821 2923 2954 3028 3046 2999 3017 2953 2911 2711 2579 2461 2383 2382 2298 2299 2317 2150 2164 2177 2246 2408 2510 2490 2399 2489 2578 2675 2783 2799 2869 3107 3078 2994 2952 2949 2943 2868 2782 2666 2577 2509 2533 2276 2277 2163 2205 2149 2297 2434 2488 2398 2370 2139 2104 2309 2416 2407 2468 2565 2433 2508 2474 2467 2460 2432 2406 2452 2341 2129 2188 2111 2245 2296 2122 2369 2397 2431 2542 2563 2576 2702 2791 2741 2740 2848 2685 2619 2610 2591 2430 2368 2295 2187 2103 2415 2405 2404 2244 2362 2138 2254 2381 2340 2176 2243 2429 2473 2516 2242 2241 2225 2204 2266 2367 2525 2524 2366 2541 2648 2723 2763 2764 2820 2922 2985 2931 2992 2940 2930 2929 2997 3015 3071 3052 3133 3172 3267 3343 3303 3253 3221 3189 3118 3084 2978 2885 2902 2854 2903 2928 2847 2809 2775 2633 2515 2396 2339 2162 2224 2403 2487 2618 2683 2758 2682 2609 2428 2361 2223 2308 2137 2161 2360 2451 2459 2562 2486 2551 2507 2390 2215 2214 2148 2186 2338 2395 2506 2608 2672 2757 2736 2796 2673 2722 2690 2790 2861 2901 3025 3092 3156 3215 3285 3324 3359 3416 3427 3382 3430 3469 3514 3520 3583 3622 3652 3679 3690 3716 3759 3765 3735 3717 3653 3588 3530 3531 3440 3417 3392 3481 3474 3482 3544 3533 3532 3586 3623 3657 3691 3660 3636 3612 3695 3662 3654 3637 3658 3708 3736 3747 3696 3634 3596 3589 3578 3512 3553 3592 3624 3647 3648 3680 3702 3681 3569 3545 3476 3450 3394 3325 3344 3313 3239 3247 3297 3393 3412 3441 3445 3449 3459 3475 3483 3470 3437 3419 3370 3319 3304 3296 3222 3199 3164 3111 3134 3100 2979 2886 2855 2797 2765 2684 2665 2569 2552 2553 2554 2691 2798 2932 2948 2986 3072 3135 3101 3139 3200 3248 3305 3298 3349 3371 3395 3460 3428 3431 3500 3522 3563 3606 3642 3682 3737 3743 3663 3613 3625 3587 3560 3534 3539 3540 3488 3421 3367 3360 3407 3413 3403 3506 3493 3464 3523 3566 3515 3484 3451 3420 3372 3289 3288 3240 3182 3208 3216 3085 3043 2993 2933 2867 2759 2739 2709 2674 2730 2692 2693 2701 2731 2751 2634 2649 2635 2816 2836 2856 2934 3026 3045 2973 2980 3059 3125 3175 3229 3249 3335 3270 3291 3332 3363 3405 3446 3485 3516 3535 3571 3600 3656 3683 3628 3599 3521 3524 3503 3453 3452 3433 3362 3408 3383 3350 3306 3269 3228 3165 3106 3044 3053 3086 3073 3076 3103 3128 3119 3007 2945 2876 2910 2815 2941 3058 3102 3209 3275 3290 3345 3276 3254 3183 3252 3257 3268 3373 3361 3432 3442 3443 3389 3320 3334 3404 3465 3489 3502 3567 3590 3655 3738 3640 3631 3618 3692 3791 3877 3906 3892 3815 3827 3835 3770 3866 3919 3930 3899 3886 3900 3909 3893 3894 3920 3895 3878 3901 3910 3873 3854 3858 3840 3819 3798 3862 3853 3828 3805 3768 3750 3719 3760 3713 3649 3601 3561 3501 3477 3400 3374 3409 3396 3354 3308 3258 3241 3210 3140 3184 3307 3292 3233 3173 3146 3077 3062 2998 2879 2974 3035 3093 3036 3087 2987 2942 2904 2817 2710 2650 2602 2564 2732 2837 2880 2935 2981 3037 3027 3016 3112 3126 3147 3160 3157 3161 3211 3223 3277 3321 3364 3390 3422 3447 3486 3517 3554 3579 3536 3584 3632 3665 3703 3739 3755 3778 3792 3773 3806 3846 3847 3887 3888 3970 3986 4016 3998 4065 3914 3931 3935 3961 3999 4007 3868 3869 3875 3879 3880 3863 3855 3816 3856 3848 3857 4185 4235 4259 4261 4285 4270 4255 4276 4271 4262 4302 4303 4300 4314 4331 4309 4312 4325 4349 4348 4356 4272 4265 4247 4239 4230 4219 4205 4200 4209 4220 4224 4231 4240 4256 4266 4287 4296 4304 4319 4317 4310 4320 4339 4326 4316 4297 4248 4281 4273 4257 4253 4279 4299 4321 4327 4337 4336 4333 4344 4350 4345 4353 4375 4396 4415 4412 4421 4478 4529 4522 4515 4518 4499 4483 4494 4498 4493 4399 4397 4398 4400 4401 4405 4420 4414 4386 4373 4371 4367 4362 4360 4351 4343 4352 4335 4330 4308 4311 4315 4318 4322 4313 4329 4338 4342 4332 4298 4307 4290 4252 4249 4238 4233 4229 4223 4288 4227 4228 4222 4212 4204 4184 4170 4139 4116 4098 4069 4049 4015 3942 3941 3980 4059 4101 4123 4141 4142 4143 4147 4145 4153 4158 4166 4159 4164 4160 4190 4214 4275 4211 4197 4188 4181 4162 4140 4138 4133 4129 4125 4124 4109 4090 4091 4063 4041 4014 3969 3979 4027 3990 4028 4043 4024 3991 3960 3974 3996 3957 3959 4013 4012 4097 4126 4146 4151 4169 4168 4176 4207 4245 4250 4264 4280 4359 4361 4376 4379 4402 4409 4444 4440 4438 4434 4428 4426 4391 4340 4260 4244 4203 4183 4234 4193 4269 4378 4370 4346 4347 4295 4289 4286 4284 4191 4192 4206 4198 4237 4199 4136 4048 4036 3985 4004 4072 4023 3972 4018 3958 4002 4062 4082 4068 4056 3968 3973 4030 4073 4067 4071 4076 4087 4100 4088 4079 4033 4064 4108 4092 4081 4096 4095 4115 4131 4106 4080 4058 4074 4103 4110 4121 4104 4075 4057 3997 3975 4011 4005 3984 4019 4035 4045 4020 3950 4006 4026 4047 4051 4025 4029 4040 4044 4050 4055 4060 4034 4003 4010 3933 3929 3902 3861 3797 3754 3664 3570 3643 3723 3630 3697 3744 3783 3790 3839 3891 3818 3860 3845 3872 3808 3718 3753 3824 3796 3804 3786 3772 3767 3803 3852 3905 3882 3871 3865 3802 3795 3785 3784 3838 3918 3898 3874 3837 3817 3777 3801 3766 3844 3934 3976 3834 3809 3814 3823 3826 3832 3831 3830 3822 3800 3782 3742 3758 3706 3670 3635 3611 3543 3497 3463 3426 3492 3457 3353 3333 3251 3274 3369 3347 3322 3284 3232 3207 3198 3116 3034 3042 3069 3188 3220 3323 3381 3439 3458 3480 3562 3627 3676 3675 3711 3734 3677 3688 3699 3712 3707 3678 3639 3617 3565 3651 3616 3585 3559 3495 3498 3499 3473 3448 3402 3388 3380 3262 3263 3348 3312 3266 3238 3155 3132 3070 3051 3006 2921 2927 2909 2939 2972 3117 3124 3105 3057 2960 2961 2756 2647 2590 2523 2359 2275 2185 2222 2184 2183 2316 2358 2522 2646 2814 2944 2908 2907 2781 2626 2532 2505 2504 2354 2203 2202 2102 2101 2240 2287 2253 2472 2503 2617 2735 2721 2755 2893 2875 3005 3115 3145 3206 3250 3197 3205 3204 3181 3080 2984 2892 2835 2700 2664 2645 2780 2738 2720 2699 2560 2616 2589 2561 2458 2352 2353 2213 2212 2221 2128 2147 2160 2159 2220 2402 2350 2274 2315 2286 2351 2450 2449 2550 2625 2671 2774 2846 2773 2795 2708 2689 2575 2574 2607 2485 2380 2357 2265 2264 2239 2201 2158 2263 2356 2379 2365 2440 2471 2457 2456 2349 2200 2252 2364 2514 2448 2273 2348 2238 2237 2236 2110 2175 2251 2439 2347 2427 2531 2705 2750 2778 2706 2697 2670 2779 2833 2899 3075 3033 2990 2898 2808 2951 2918 2754 2813 2749 2777 2748 2696 2688 2680 2668 2614 2662 2681 2669 2623 2540 2484 2447 2337 2426 2336 2199 2109 2146 2157 2438 2530 2559 2661 2788 2753 2747 2642 2573 2521 2389 2325 2174 2156 2307 2285 2235 2145 2173 2127 2126 2121 2006 2001 2082 2172 2066 2056 2033 1975 1955 1995 1954 1953 2024 2023 2018 2011 2047 2017 2016 2010 2005 1974 1988 1962 1945 1940 1794 1848 1910 2046 2090 2155 2136 2284 2377 2520 2378 2622 2792 2793 2746 2761 2752 2874 2716 2500 2549 2558 2586 2600 2727 2613 2604 2601 2631 2694 2717 2605 2587 2588 2718 2687 2606 2501 2568 2659 2632 2502 2513 2529 2641 2695 2660 2728 2794 2853 2772 2787 2866 2906 2884 2938 2969 2925 2970 3032 3171 3179 3144 3109 3098 3455 3472 3399 3163 3151 3130 3003 3170 3213 3227 3295 3377 3122 3302 3309 3195 3178 2832 2831 2844 2860 2612 2865 2864 2873 2830 2843 2829 2842 2828 2807 2499 2599 2548 2557 2539 2528 2483 2388 2346 2198 1961 1921 1840 1812 1930 2015 2055 2075 2089 2120 2074 2045 2032 2029 2031 2004 2014 1973 2197 1994 1939 1889 2262 2726 2917 3346 3330 3505 4294 4218 4078 3694 3646 3513 3226 3219 2812 2630 2538 2466 2454 2324 2234 2143 2119 2100 2065 2038 2021 2013 1972 1909 1993 2000 1960 1952 1938 1879 1880 1881 2196 2305 2283 2306 2314 2335 2376 2401 2445 2455 2482 2497 2498 2527 2598 2547 2446 2144 2022 1944 1902 1792 1753 1731 1616 1509 1472 1442 1481 1520 1576 1639 1685 1670 1694 1742 1747 1760 1803 1821 1882 1793 1732 1706 1695 1492 1400 1238 1328 1351 1258 1235 1148 1165 1136 1147 1135 1122 1098 963 1089 1191 1097 956 920 962 955 1088 1096 1140 1134 1051 1028 989 892 853 779 573 535 460 410 368 351 341 326 289 256 241 232 220 210 200 191 204 229 248 163 132 138 129 115 107 98 99 102 83 84 73 57 58 51 64 60 47 44 37 30 12 16 18 19 23 20 21 24 17 15 8 10 3 5 11 9 4 1 2 6 7 14 25 29 27 22 13 26 28 31 38 56 67 75 85 63 43 36 34 41 35 40 33 49 66 78 62 46 32 45 54 39 42 55 72 77 88 91 96 106 109 111 114 128 155 147 139 137 120 117 118 112 110 101 104 108 105 94 97 119 125 131 162 179 197 208 178 194 228 247 271 294 295 252 226 245 288 330 376 359 358 367 356 340 293 318 362 397 421 417 404 416 415 414 427 433 459 473 528 647 597 616 606 675 841 753 807 905 911 947 948 994 1022 1067 1081 1121 1157 1190 1234 1237 1227 1221 1217 1199 1185 1186 1320 1291 1273 1375 1365 1319 1266 1265 1303 1290 1233 1170 1216 1272 1243 1198 1184 1220 1364 1399 1437 1479 1491 1502 1519 1545 1585 1532 1528 1490 1462 1430 1458 1478 1508 1566 1692 1775 1827 1776 1767 1740 1758 1759 1741 1728 1713 1665 1664 1659 1637 1597 1606 1615 1638 1628 1607 1705 1800 1828 1847 1888 1908 2077 2064 2088 2108 2044 2030 1987 1901 1791 1790 1712 1778 1826 1873 1929 1986 2020 2043 2003 1985 1951 1777 1752 1811 1820 1877 1878 1928 1971 1920 1819 1784 1739 1738 1746 1766 1757 1846 1834 1866 1893 1900 1887 1999 1984 1950 1983 1839 1838 1783 1544 1765 1745 1744 1982 1691 1682 1684 1675 1465 1407 1302 1159 1109 1145 1079 1015 987 973 1016 988 932 876 848 820 804 821 835 836 786 764 774 785 763 736 682 697 726 727 713 657 658 683 737 738 714 698 699 700 715 625 592 586 701 593 526 508 509 610 702 765 796 910 885 824 851 775 747 823 822 838 869 837 850 849 902 901 916 937 953 974 1017 1018 1019 1020 1065 1160 1059 1006 1095 1146 1181 1197 1182 1189 1207 1242 1335 1383 1318 1257 1250 1183 1120 1043 975 917 1042 903 797 776 716 728 729 703 717 685 674 684 611 612 633 646 660 739 748 839 852 749 750 614 557 527 627 626 634 613 594 571 544 471 444 440 437 383 384 396 419 447 479 472 409 385 392 337 309 299 334 312 335 386 375 393 353 342 336 321 343 322 338 344 387 429 432 458 486 514 637 730 777 798 704 558 530 572 636 766 825 787 719 595 635 686 718 751 805 870 890 933 891 960 919 954 1007 1050 1080 1066 1110 1111 1133 1021 1161 1163 1044 1034 1139 1289 1345 1326 1327 1264 1164 1156 1112 1035 993 934 904 976 961 858 731 827 767 752 705 615 559 488 482 464 445 420 413 389 365 366 339 345 329 315 303 292 278 276 244 217 190 187 173 188 196 168 143 144 124 134 146 154 172 158 153 152 157 142 136 133 127 123 126 113 100 90 93 103 95 68 59 53 48 71 87 79 82 86 89 81 74 65 61 50 52 69 70 76 80 92 182 184 183 193 216 235 224 215 192 195 234 240 251 286 243 227 203 206 239 268 285 314 324 354 349 328 301 350 317 302 264 236 207 185 170 169 165 160 156 161 150 145 151 166 171 175 186 199 212 225 237 270 275 269 287 291 325 355 388 364 403 394 424 448 487 497 564 806 840 778 826 741 740 661 596 563 496 480 481 441 412 348 323 313 284 283 267 214 219 233 255 282 281 259 246 231 202 211 213 223 254 263 266 258 242 250 253 262 257 261 280 308 298 297 307 320 395 374 361 382 402 423 431 439 451 463 478 470 525 524 469 468 523 562 579 585 570 534 503 522 584 605 659 645 632 604 603 602 609 631 644 681 696 673 672 695 694 680 671 656 692 693 725 735 744 745 746 761 762 773 772 771 784 783 795 803 819 868 857 884 896 931 918 900 889 867 847 834 802 794 760 759 733 734 724 712 691 670 624 643 630 569 561 550 543 507 485 542 502 521 556 591 601 679 689 690 758 770 757 756 782 866 909 945 930 946 986 1005 1014 1027 1041 1087 1132 1108 1131 1144 1032 1033 999 944 899 846 833 818 732 678 655 583 513 549 506 555 623 669 642 723 832 926 952 943 967 985 1078 1155 1215 1236 1248 1255 1226 1180 1169 1158 1162 1106 1086 1107 1143 1232 1256 1249 1241 1271 1284 1283 1313 1288 1282 1325 1360 1374 1382 1342 1421 1471 1455 1527 1627 1614 1693 1737 1756 1797 1789 1809 1810 1886 1943 1970 1998 2070 2042 2063 2107 2142 2106 2073 2062 1927 1899 1865 1845 1864 1885 1833 1837 1876 1919 1926 1925 1937 1959 1981 2009 1992 1936 1980 1991 1918 1875 1863 1844 1872 1862 1861 1907 1871 1860 1859 1870 1818 1808 1807 1802 1700 1391 1341 1340 1310 1300 1280 1262 1311 1287 1281 1312 1317 1301 1270 1254 1253 1269 1263 1231 1179 1206 1188 1105 1077 1013 1026 972 984 915 907 908 793 856 722 590 589 467 462 466 533 578 582 654 711 653 629 581 520 548 577 668 688 721 817 925 951 950 924 898 875 755 641 710 792 895 929 983 1094 1058 1057 1025 1063 1093 1196 1230 1247 1275 1295 1323 1347 1336 1308 1333 1356 1229 1307 1369 1411 1441 1445 1461 1446 1415 1405 1386 1367 1378 1343 1309 1279 1260 1240 1214 1176 1154 1138 1103 1177 1064 1040 1012 1104 1130 1178 1225 1261 1268 1297 1316 1373 1390 1406 1420 1381 1380 1372 1371 1389 1379 1363 1358 1349 1359 1350 1339 1315 1296 1324 1334 1338 1344 1337 1348 1362 1357 1368 1370 1388 1387 1398 1417 1416 1427 1434 1424 1433 1447 1451 1485 1518 1537 1571 1613 1626 1605 1596 1570 1484 1483 1496 1489 1507 1543 1526 1517 1488 1525 1552 1584 1643 1651 1674 1612 1583 1590 1625 1650 1649 1669 1690 1711 1718 1743 1710 1689 1658 1611 1636 1632 1565 1516 1536 1524 1523 1515 1514 1531 1557 1624 1680 1564 1582 1505 1501 1460 1487 1495 1454 1432 1355 1332 1274 1213 1129 1153 1071 1031 992 998 942 982 1062 1056 959 941 1004 981 971 980 928 831 855 864 883 865 791 667 600 580 532 547 554 495 436 381 418 461 484 519 512 518 501 541 687 622 588 568 576 640 816 863 897 940 991 1039 1076 1011 936 754 709 621 882 1024 997 966 914 1010 1128 1055 1038 1049 1048 970 958 894 815 801 708 620 608 607 619 666 546 511 492 493 475 494 476 457 505 477 449 465 450 435 430 426 401 428 411 408 380 373 357 363 347 316 296 311 274 273 249 222 230 209 205 189 181 177 164 159 180 174 149 122 116 121 130 141 135 140 167 148 176 198 201 221 218 238 272 265 260 290 277 279 300 304 319 305 352 327 310 306 372 400 407 406 346 360 371 391 398 333 332 331 379 405 390 378 369 370 377 399 422 443 483 516 425 446 438 442 453 452 474 489 515 510 565 574 649 789 873 935 811 638 552 537 536 648 551 618 560 617 720 742 788 842 871 828 877 921 957 964 1008 1036 995 1060 1082 1090 1099 1123 1068 1052 1053 1069 1072 1091 1113 1114 1171 1149 1124 1045 1000 1046 968 977 969 990 965 978 949 878 879 843 808 799 800 809 829 859 872 844 810 912 938 1009 1037 1029 1083 1115 1192 1187 1208 1251 1277 1292 1304 1394 1422 1423 1563 1500 1494 1468 1209 1166 1200 1201 1202 1203 1150 1172 1167 1125 1117 1141 1151 1204 1168 1218 1100 1101 1173 1210 1244 1259 1299 1354 1409 1314 1305 1245 1212 1211 1205 1193 1126 1127 1054 1047 1070 1023 887 830 665 639 575 539 538 599 651 664 707 769 814 860 906 927 922 913 880 886 1003 1030 1074 1085 1092 1073 1116 1084 1001 1002 979 812 650 706 768 780 790 813 854 893 845 781 662 566 628 663 676 677 598 567 517 498 454 434 455 490 553 545 529 456 491 504 499 500 531 540 587 652 743 874 862 881 861 888 923 939 996 1075 1102 1118 1152 1174 1222 1286 1306 1330 1278 1223 1267 1322 1385 1429 1436 1395 1428 1459 1469 1541 1610 1630 1641 1655 1668 1656 1631 1662 1645 1622 1673 1642 1581 1477 1444 1418 1419 1410 1396 1414 1366 1361 1331 1293 1252 1239 1219 1175 1137 1119 1061 1142 1194 1246 1228 1195 1224 1294 1346 1397 1542 1595 1623 1663 1699 1698 1704 1703 1722 1717 1727 1751 1697 1688 1735 1786 1763 1750 1734 1726 1721 1702 1716 1771 1773 1796 1806 1814 1832 1855 1957 1949 1969 2012 2041 2069 2040 2037 2019 2059 2080 2098 2135 2195 2232 2219 2258 2272 2095 2282 2259 2260 2250 2181 2154 2099 2060 2081 2072 2061 2054 1978 1958 1815 1764 1723 1787 1843 1874 1801 1904 1917 1905 1934 2028 2002 1979 1942 1935 1906 1856 1897 1898 1884 1816 1857 1858 1825 1799 1774 1817 1788 1755 1736 1781 1782 2313 1924 2008 2087 2182 2233 2211 2261 2323 2375 2526 2596 2725 2806 2811 2805 2859 2858 2852 2851 2872 2857 2850 2863 2841 2658 2611 2556 2496 2294 2257 2194 2293 2819 2804 2803 2818 2883 2958 3031 3066 3083 3218 3243 3273 3294 3272 3271 3282 3287 3318 3341 3378 3317 3265 3255 3230 3194 3177 3152 3142 3143 3121 3082 3056 3010 3041 2965 2882 2827 2802 2734 2679 2567 2495 2414 2424 2394 2423 2444 2393 2231 2153 2118 2092 2093 2086 2094 2180 2133 2171 2134 1966 1895 1869 1854 1914 1967 1997 1968 1948 1892 1916 1896 1923 1915 1831 1805 1785 1780 1772 1770 1725 1709 1687 1672 1661 1654 1667 1679 1621 1589 1569 1580 1588 1609 1579 1551 1575 1562 1574 1568 1578 1678 1577 1561 1535 1540 1530 1539 1550 1620 1604 1587 1534 1467 1450 1440 1435 1408 1393 1377 1404 1392 1431 1453 1452 1457 1473 1476 1499 1493 1556 1603 1619 1504 1513 1503 1498 1533 1567 1555 1512 1475 1482 1480 1466 1456 1449 1439 1402 1353 1384 1413 1426 1464 1448 1443 1401 1376 1352 1285 1276 1329 1321 1298 1403 1412 1425 1438 1463 1470 1474 1486 1521 1546 1558 1591 1598 1633 1646 1634 1592 1599 1553 1547 1538 1529 1497 1510 1511 1522 1548 1554 1572 1586 1600 1617 1640 1647 1644 1652 1657 1683 1701 1714 1724 1761 1729 1715 1707 1696 1686 1676 1660 1653 1635 1593 1573 1559 1506 1549 1560 1594 1618 1601 1608 1602 1629 1648 1681 1666 1671 1677 1708 1754 1769 1779 1749 1730 1720 1733 1762 1719 1748 1768 1798 1823 1835 1883 1894 1922 1947 1956 1933 1912 1941 1913 1890 1841 1836 1852 1824 1842 1853 1795 1813 1891 1990 1977 1996 1965 1976 2050 2097 2132 2170 2178 2209 2230 2270 2303 2125 2083 2051 2052 2027 2071 2084 2290 2334 2373 2344 2392 2386 2536 2566 2478 2463 2479 2544 2517 2437 2493 2518 2464 2411 2387 2327 2291 2304 2105 2179 2271 2292 2328 2420 2412 2421 2345 2322 2210 2152 2116 2079 2085 2091 2117 2053 2035 2036 2218 2443 2470 2585 2639 2595 2629 2686 2678 2545 2494 2469 2413 2374 2481 2537 2571 2594 2512 2442 2422 2480 2638 2657 2677 2704 2810 2719 2776 2840 2890 2964 2989 3049 3091 3108 3040 3150 3162 3192 3236 3259 3281 3316 3338 3339 3329 3340 3352 3444 3509 3529 3504 3519 3542 3550 3575 3576 3594 3607 3595 3603 3593 3633 3641 3689 3705 3722 3771 3779 3813 3829 3836 3833 3788 3896 3927 3928 3912 3889 3876 3916 3870 4009 4099 4102 4120 4039 4022 3789 3794 3850 4189 4208 4187 4242 4282 4355 4382 4394 4416 4422 4406 4477 4555 4611 4617 4618 4622 
