Best cost: 226928
Time: 106.838
Route:
3505 3524 3541 3596 3662 3630 3700 3752 3767 3798 3771 3820 3841 3898 3905 3952 3897 4002 3980 3985 3984 4029 4102 4049 4084 4034 4067 4193 4211 4253 4232 4149 4117 4037 3999 3979 4014 3879 3817 3787 3796 3756 3836 3856 3883 3758 3828 3855 3934 3962 3880 3842 3800 3780 3912 3928 3938 3958 3988 4011 4077 4104 4126 4030 4032 4111 4202 4155 4015 3977 3943 3916 3945 4314 4212 4173 4254 4290 4362 4381 4459 4502 4509 4564 4613 4523 4525 4575 4648 4754 4755 4811 4837 4864 4950 4918 4913 4832 4782 4706 4650 4609 4593 4533 4489 4510 4384 4408 4411 4339 4344 4313 4373 4454 4467 4514 4566 4666 4538 4603 4721 4705 4730 4820 4840 4965 5012 5062 5182 5175 5076 4991 5092 5139 5191 5079 4953 5009 5016 4940 4868 4827 4739 4763 4718 4806 4817 4779 4676 4584 4615 4554 4472 4468 4387 4311 4438 4511 4498 4499 4448 4385 4377 4298 4259 4197 4114 4074 4038 3970 3852 3849 3811 3853 3871 3982 3987 4245 4215 4162 4124 4140 4209 4195 4222 4322 4379 4394 4527 4577 4669 4716 4746 4682 4686 4636 4550 4585 4628 4714 4845 4899 4927 4992 5059 5063 5134 5094 5049 5080 5000 4956 4980 5010 5090 5115 5132 5193 5158 5081 5070 5165 5321 5425 5336 5273 5297 5404 5377 5399 5326 5220 5189 5172 5243 5309 5223 5357 5468 5449 5490 5491 5537 5629 5630 5557 5492 5450 5426 5372 5303 5179 5053 4995 4966 4952 4907 4823 4771 4711 4643 4543 4494 4586 4611 4677 4700 4772 4893 4896 4981 5035 5096 5041 5025 5006 4975 4903 4838 4759 4703 4645 4687 4625 4540 4461 4414 4396 4427 4383 4507 4539 4465 4482 4503 4578 4601 4661 4709 4756 4828 4741 4688 4764 4729 4751 4629 4598 4508 4260 4358 4380 4443 4388 4346 4217 4137 4174 4181 4223 4267 4292 4356 4434 4435 4455 4366 4412 4430 4404 4287 4258 4179 4156 4204 4201 4138 4070 4123 3283 3228 3247 3382 3419 3433 3405 3514 3507 3351 3169 3109 3121 3155 3119 3186 3265 3269 3295 3306 3329 3422 3440 3496 3529 3559 3641 3690 3726 3761 3804 3766 3734 3707 3668 3635 3568 3556 3597 3634 3670 3680 3613 3581 3531 3486 3445 3400 3428 3479 3490 3477 3518 3595 3691 3692 3728 3745 3805 3776 3741 3759 3839 3833 3893 3837 3899 3923 3955 4004 4041 4055 4003 3929 3861 3783 3816 3835 3902 4016 4042 3859 3792 3757 3675 3631 3577 3588 3478 3623 3586 3498 3452 3493 3528 3501 3444 3406 3374 3310 3339 3368 3365 3453 3389 3421 3415 3316 3346 3373 3392 3427 3454 3506 3580 3614 3645 3617 3687 3778 3825 3722 3697 3733 3677 3685 3719 3802 3873 3908 3931 3890 3803 3737 3781 3834 3829 3824 3769 3870 3910 3965 4040 4115 4178 4250 4220 4183 4095 4075 4022 4048 3991 3964 4013 3930 3887 3972 3917 3857 3976 3968 4039 4064 4090 4127 4163 4168 4120 4100 4068 4175 4130 4233 4303 4382 4399 4323 4326 4324 4342 4386 4335 4310 4269 4280 4336 4439 4490 4541 4492 4691 4708 4767 4847 4900 4857 4774 4725 4740 4707 4685 4654 4590 4576 4594 4582 4470 4451 4480 4515 4526 4571 4692 4790 4833 4894 4911 4954 5056 5097 5117 5084 5067 5020 5034 5106 5159 5252 5346 5310 5294 5343 5356 5445 5435 5419 5315 5248 5160 5036 5011 4935 4861 4785 4715 4652 4624 4573 4597 4698 4875 5227 5286 5400 5339 5420 5461 5523 5555 5628 5696 5620 5641 5764 5819 5795 5860 5926 5946 6026 6020 6097 6098 6155 6152 6221 6156 6189 6154 6132 6060 6034 5972 5960 5903 5909 5801 5779 5738 5782 5805 5815 5842 5880 5885 5938 5760 5718 5703 5674 5575 5535 5546 5529 5524 5486 5460 5405 5306 5231 5241 5203 5032 5071 5013 4943 4901 4883 4836 4863 4930 4951 5038 5045 5109 5157 5242 5325 5412 5352 5262 5149 5069 5086 5040 4999 5014 4990 5022 5048 5029 4983 4906 4812 4870 4912 4854 4881 4970 5122 5257 5371 5253 5407 5436 5442 5522 5570 5587 5652 5704 5743 5742 5843 5823 5806 5783 5744 5724 5678 5653 5677 5556 5489 5536 5963 6082 6004 5929 6035 6099 6242 6285 6387 6349 6252 6168 6273 6324 6374 6432 6488 6557 6563 6595 6630 6704 6807 6845 6874 6912 6921 6878 6813 6732 6765 6814 6880 6819 6729 6665 6623 6570 6507 6531 6568 6536 6598 6653 6742 6817 6830 6920 7001 6973 7009 7359 7281 7303 7339 7375 7406 7377 7402 7345 7321 7240 7204 7166 7127 7079 7020 7064 7057 7122 7168 7205 7191 7150 7135 7142 7077 7096 7123 7103 7062 7010 6986 6997 6953 6910 6926 6968 6890 6930 6988 6984 7016 7067 7111 7095 7085 7012 6939 6908 6963 6937 6835 6806 6716 6656 6904 6962 6993 6966 6938 6985 7022 6942 6996 6889 6849 6776 6725 6672 6702 6636 7019 6989 6947 6907 6882 6967 7089 7040 7052 7118 7152 7215 7195 7158 7104 7073 7138 7102 7063 7034 6994 7163 7182 7202 7241 7261 7267 7291 7328 7327 7306 7273 7258 7275 7397 7444 7425 7431 7414 7382 7369 7353 7342 7316 7220 7268 7269 7249 7236 7292 7320 7336 7386 7349 7399 7363 7426 7447 7459 7465 7458 7463 7480 7489 7453 7445 7427 7429 7438 7454 7455 7467 7478 7486 7493 7483 7237 7188 7143 7179 7115 7092 6987 6981 6978 7004 6964 6919 6836 6891 6929 6941 6911 6883 6828 6770 6684 6703 6664 6616 6544 6443 6306 6237 6171 6223 6309 6337 6307 6365 6347 6305 6373 6423 6499 6567 6481 6434 6464 6553 6601 6640 6741 6709 6632 6700 6738 6774 6648 6605 6543 6495 6556 6493 6342 6323 6286 6382 6408 6485 6581 6679 6692 6748 6800 6914 6467 6381 6386 6447 6410 6497 6606 6520 6471 6430 6322 6314 6198 6146 6089 6131 6212 6302 6246 6185 6147 6183 6253 6289 6316 6403 6418 6470 6589 6629 6734 6678 6647 6754 6838 6809 6783 6662 6612 6539 6512 6402 6284 6159 6077 6058 6050 5908 5921 5941 5971 6033 5994 5944 5904 5864 5818 5739 5671 5645 5594 5592 5549 5506 5448 5398 5334 5320 5256 5213 5161 5194 5246 5387 5438 5395 5282 5403 5362 5447 5482 5507 5554 5596 5624 5702 5735 5723 5722 5759 5758 5800 5814 5862 5867 5869 5943 5962 5996 6120 6145 6182 6205 6086 6144 6170 6271 6321 6295 6377 6420 6545 6683 6671 6611 6550 6463 6549 6628 6555 6565 6519 6505 6541 6440 6369 6390 6451 6360 6436 6457 6401 6275 6263 6206 6197 6220 6188 6282 6222 6150 6092 6032 5983 5923 5902 5841 5838 5863 5834 5797 4814 4757 4816 4724 4689 4662 4668 4600 4618 4547 4493 4476 4393 4296 4304 4354 4370 4392 4291 4265 4189 4112 4119 4078 4035 4021 3971 3941 3821 3815 3808 3876 3922 3956 3940 3881 3845 3788 3755 3711 3646 3712 3736 3714 3657 3579 3538 3574 3625 3702 3739 3785 3797 3738 3605 3652 3660 3669 3640 3619 3569 3413 3376 3337 3336 3248 3230 3256 3184 3261 3268 3276 3298 3281 3291 3317 3327 3293 3241 3229 3187 3161 3105 3095 3162 3206 3260 3305 3243 3188 3192 3168 3135 3069 3080 3179 3141 3123 3096 3020 2994 2965 2874 2915 2952 2993 3059 3086 3106 3087 3118 3133 3116 3061 3055 3077 3130 3173 3210 3240 3208 3154 3129 3201 3111 3078 3114 3063 3079 3031 2990 2942 2943 2936 2903 2870 2868 2160 2127 1994 1983 1937 1873 1811 1802 1761 1721 1681 1715 1678 1502 1607 1660 1719 1737 1772 1796 1788 1824 1732 1709 1726 1722 2050 1950 1918 1860 1885 1910 1975 2055 2134 2170 2226 2326 2429 2486 2534 2525 2481 2427 2371 2270 2305 2241 2183 2132 2147 1919 1891 1908 1874 1808 1730 1801 1716 1760 1854 1931 1892 1836 1706 903 857 860 812 801 739 704 653 607 532 475 566 542 499 421 471 447 470 503 561 512 533 597 800 768 813 842 821 741 758 778 839 851 884 869 922 928 932 898 863 838 803 828 874 881 921 941 992 1014 998 972 947 952 1027 1057 1085 1105 1076 1086 1070 1044 950 937 872 807 779 735 700 685 651 610 643 660 630 641 684 719 740 792 853 891 895 949 986 1066 1078 1152 1170 1346 1306 1213 1228 1269 1332 1376 1378 1406 1510 1590 1532 1496 1507 1578 1616 1684 1677 1649 1739 1806 1822 1848 1702 1717 1785 1862 1869 1947 1938 1976 1957 1925 1889 1823 1844 1945 1965 1870 1858 1771 1733 1740 1690 1612 1505 1399 1388 1438 1368 1334 1239 1188 1298 1195 1166 1187 1177 1186 1097 1082 1073 1037 1185 1256 1333 1398 1466 1503 1728 1643 1571 1585 1650 1579 1543 1518 1491 1390 1319 1235 1275 1288 1433 1535 1589 1644 1689 1797 1699 1671 1654 1599 1625 1666 1633 1533 1452 1504 1540 1437 1362 1287 1214 1171 1080 1149 1159 1209 1249 1302 1374 1359 1415 1412 1310 1255 1344 1297 1198 1144 1199 1028 1030 948 980 944 875 854 818 776 751 720 723 692 664 642 662 657 606 632 618 601 558 551 543 507 531 495 548 511 544 523 554 578 602 638 611 594 663 756 775 794 767 783 808 865 843 905 823 790 765 743 804 846 852 822 785 827 862 897 896 885 942 960 968 999 1036 1045 1018 1040 1079 1103 1046 1038 1088 1110 1090 1224 1131 1116 1051 991 1000 1071 1091 1119 1132 1210 1197 1240 1336 1488 1572 1584 1525 1562 1471 1457 1328 1280 1222 1257 1400 1335 1375 1428 1456 1509 1519 1638 1815 1902 1914 1940 1966 2092 2128 2185 2053 1992 1920 1888 1833 1800 1712 1775 1691 2315 2418 2553 2520 2498 2449 2469 2428 2487 2538 2674 2705 2767 2716 2689 2707 2723 2740 2750 2807 2886 2914 2935 2971 3009 3044 3094 3166 3252 3304 3267 3343 3409 3430 3488 3470 3448 3386 3364 3515 3542 3530 3537 3557 3431 3355 3322 3308 3235 3190 3140 3050 2910 2938 2901 2892 2856 2857 2774 2721 2712 2671 2661 2530 2510 2448 2407 2409 2357 2334 2288 2289 2266 2220 2249 2180 2201 2204 2279 2282 2244 2268 2308 2366 2346 2294 2329 2367 2399 2430 2432 2499 2543 2645 2606 2686 2581 2593 2665 2550 2470 2494 2463 2471 2368 2284 2195 2171 2062 2012 1951 1968 1989 2000 2129 2148 2262 2273 2298 2364 2476 2527 2577 2675 2725 2779 2788 2817 2829 2907 2925 2871 2790 2717 2785 2770 2799 2826 2948 2974 3000 3030 3051 3085 3149 3183 3142 3089 3218 3131 3182 3246 3264 3282 3334 3324 3366 3314 3211 3176 3212 3134 3028 3065 3071 3195 3197 3216 3258 3285 3332 3387 3456 3549 3517 3465 3500 3396 3474 3473 3548 3638 3673 3698 3742 3633 3582 3522 3480 3352 3347 3367 3309 3273 3296 3251 3280 3290 3263 3185 3167 3148 3196 3147 3110 3163 3138 3062 2985 2953 2896 2858 2897 2904 2812 2684 2583 2482 2383 2328 2276 2247 2205 2157 2123 2044 1952 1887 1856 1837 1783 1693 1617 1602 1596 1542 1530 1495 1445 1431 1500 1564 1605 1323 1229 1141 1093 1061 1023 1007 989 993 1089 1077 1050 1031 1008 995 1009 946 920 985 1024 1042 1055 1056 1126 1121 1160 1263 1341 1237 1204 1155 1142 1244 1301 1462 1576 1614 1629 1640 1673 1695 1696 1736 1809 1731 1766 1794 1826 1884 1923 1974 2007 2015 2032 2066 2105 2177 2210 2235 2223 2158 2133 2142 2197 2167 2153 2089 2018 1972 1912 1924 1971 2013 1996 1933 1866 1894 1970 1915 1863 1746 1609 1608 1657 1665 1694 1639 1560 1613 1661 1748 1792 1790 1718 1675 1685 1758 1819 1907 1999 2065 2010 1973 1986 2027 1846 1767 1755 1779 1756 1565 1550 1522 1484 1393 1251 1290 1129 1111 1015 1025 1041 990 983 981 974 933 886 908 925 892 931 890 882 901 902 802 810 847 760 742 763 722 702 780 757 695 637 667 646 568 549 476 522 589 604 341 371 394 449 485 427 454 526 617 615 600 569 486 467 426 393 370 466 473 456 498 588 614 639 745 737 798 732 717 701 659 644 444 408 350 347 334 317 97 86 103 100 85 117 130 136 171 191 195 190 207 203 212 221 239 247 251 252 272 282 295 319 354 257 208 180 140 148 159 145 152 141 45 51 58 18 14 12 4 8 7 11 5 2 33 27 34 43 35 1 3 6 26 53 50 52 69 99 61 67 57 73 70 80 44 28 20 16 37 25 36 65 74 110 118 126 123 94 154 165 108 114 105 194 187 151 201 236 279 296 325 289 304 299 287 273 246 241 213 200 229 222 216 202 227 244 288 290 307 328 390 414 439 464 605 674 520 537 519 571 565 494 478 582 591 673 652 626 584 547 525 474 480 425 406 418 400 342 338 627 649 716 752 749 736 774 796 727 731 676 628 593 521 472 438 479 585 553 432 420 311 283 271 256 267 373 374 378 440 699 733 789 811 825 841 809 782 840 868 899 917 954 1017 1123 1128 1146 1094 1117 1151 1194 1205 1321 1405 1358 1347 1312 1597 1588 1593 1580 1547 1569 1566 1531 1514 1536 1473 1435 1417 1424 1314 1329 1371 1436 1425 1379 1345 1294 1283 1252 1208 1175 1098 1114 1145 1172 1223 1179 1165 1313 1232 1293 1351 1414 1464 1501 1508 1468 1407 1384 1342 1279 1225 1216 1183 1162 1182 1178 1161 1270 1309 1348 1277 1218 1157 1153 1193 1227 1264 1308 1592 1581 1559 1630 1674 1714 1734 1697 1669 1642 1545 1591 1627 1634 1662 1708 1831 1859 2146 2169 2124 2179 2519 2588 2620 2614 2565 2567 2655 2697 2724 2741 2743 2715 2669 2781 2746 2714 2805 2840 2831 2813 2911 2944 2987 3004 2975 2986 3001 2996 3014 2945 2847 2824 2761 2742 2521 2574 2497 2447 2413 2400 2354 2338 2253 2139 2144 2064 2024 2030 2094 2172 2200 2257 2280 2351 2369 2307 2299 2353 2327 2306 2361 2450 2504 2542 2460 2397 2396 2336 2243 2196 2238 2199 2152 2103 2113 2084 2039 2058 1969 1922 1883 1832 1818 1713 1603 1575 1529 1475 1391 1304 1248 1158 1207 1276 1339 1394 1460 1478 1447 1461 1404 1340 1325 1274 1300 1262 1192 1140 1065 1006 966 1022 1099 1139 1092 1034 1019 965 935 924 894 912 916 979 1054 1138 1148 1261 1247 1266 1326 1364 1403 1521 1234 1350 1273 1236 1289 1357 1419 1477 1463 1474 1402 1338 1366 1451 1401 1363 1453 1459 1446 1337 1267 1112 1068 1058 1033 1048 1083 1053 1074 1049 1095 1136 1156 1190 1282 1260 1191 1137 1108 1063 977 943 915 984 1004 1064 1084 1104 1168 1113 1106 1029 1005 973 934 913 888 879 819 834 844 691 734 824 964 956 1010 1003 940 926 945 988 1002 1026 1087 1135 1233 1311 1356 1434 1458 1416 1385 1369 1259 1258 1383 1430 1497 1528 1520 1573 1601 1645 1692 1798 1619 1577 1574 1641 1668 1764 1765 1853 1871 1745 1724 1817 1830 1872 1900 1946 1935 1929 1997 2059 2023 2028 2107 2068 2043 2022 2047 2011 2063 1967 2014 2091 2110 2162 2097 2086 2046 1963 1921 1816 1781 1672 1554 1418 1246 1202 1150 1147 1125 1100 1047 1039 1107 1120 1133 1189 1134 1067 1012 994 1021 930 963 1001 788 866 769 726 679 708 665 661 671 655 693 635 666 622 621 677 748 759 791 781 833 773 859 962 976 927 871 832 815 858 867 873 918 911 929 961 987 923 914 904 864 829 826 817 766 793 786 830 797 831 787 762 725 712 706 795 707 686 620 564 509 524 492 452 443 382 361 430 457 489 450 469 510 560 573 530 528 517 562 534 546 488 453 431 409 396 397 415 381 362 419 493 518 481 482 529 563 623 713 714 761 705 612 672 675 624 567 487 463 391 348 286 305 331 337 355 360 302 245 226 193 172 162 160 137 149 197 158 167 185 199 231 263 278 313 329 343 383 392 365 442 477 490 541 570 656 683 754 696 715 724 658 599 586 625 613 603 557 576 538 366 314 277 224 233 204 181 168 169 125 139 142 95 106 122 96 76 60 39 30 19 10 9 13 15 21 24 42 49 78 93 109 128 131 75 38 22 17 23 29 31 32 41 46 59 62 82 87 101 116 113 92 72 56 63 55 89 71 77 48 40 47 54 64 81 115 79 88 91 104 112 119 124 157 153 163 170 188 211 210 196 178 173 155 120 133 146 175 225 232 240 261 293 322 301 242 228 259 294 318 324 363 345 333 330 315 340 344 356 369 358 380 411 398 404 359 434 412 455 506 468 508 559 595 631 619 592 634 670 636 681 728 747 753 711 690 721 750 710 688 669 648 647 579 580 527 581 598 709 694 687 640 689 718 703 698 729 668 678 654 556 616 633 590 555 491 514 502 461 423 401 346 351 379 377 410 459 496 505 515 516 552 583 587 539 545 484 446 437 462 448 388 376 357 339 321 297 326 298 352 335 349 310 292 284 248 258 266 300 316 270 254 219 209 237 276 275 268 262 220 206 184 156 164 174 150 138 135 90 98 107 111 121 102 83 66 68 84 127 176 177 144 134 129 217 183 189 235 223 198 161 166 179 147 143 132 192 182 186 205 214 243 260 280 306 323 389 327 320 265 255 238 234 218 230 250 269 332 372 399 436 416 407 385 405 429 387 253 215 249 281 312 291 303 309 274 264 285 308 336 353 368 413 433 460 424 465 513 501 483 500 536 577 629 680 645 535 497 504 422 441 451 458 402 375 367 364 386 395 384 417 403 435 445 428 540 596 575 746 770 784 806 799 861 870 850 900 814 772 764 820 837 856 845 730 697 682 650 608 572 550 574 609 738 777 816 836 855 907 909 955 1016 971 975 1062 1013 1035 959 906 887 878 877 835 755 744 771 805 883 919 953 978 957 1032 1081 1217 1265 1253 1181 1118 1043 1020 997 880 848 849 876 893 889 910 958 951 970 969 938 939 996 1011 1060 1075 1122 1052 1101 1163 1315 1286 1343 1285 1231 1143 1124 1164 1173 1230 1271 1291 1307 1423 1395 1284 1327 1370 1367 1215 1221 1242 1278 1320 1354 1373 1449 1465 1392 1380 1324 1206 1220 1349 1422 1489 1561 1618 1686 1705 1635 1586 1557 1537 1517 1377 1292 1296 1281 1219 1211 1303 1410 1443 1441 1493 1544 1610 1742 1784 1835 1843 1906 1942 2025 2071 2115 2119 2120 2087 2078 2141 2166 2232 2269 2301 2343 2408 2455 2537 2540 2601 2646 2688 2679 2648 2632 2582 2480 2422 2373 2352 2403 2387 2202 2181 2096 2031 1917 1864 1882 1960 1980 2042 2108 2130 2163 2207 2225 2255 2313 2331 2254 2264 2250 2191 2187 2111 2117 2173 2193 2140 2072 2048 2020 1977 1995 1955 1948 1896 1881 1834 1878 1827 1842 1786 1909 1901 1828 1880 1928 1899 1861 1845 1799 1820 1877 1944 2038 2067 2104 2095 2019 2178 2260 2314 2300 2363 2391 2402 2467 2493 2466 2555 2650 2682 2718 2792 2842 2838 2814 2584 2600 2630 2612 2560 2516 2523 2483 2485 2524 2561 2602 2651 2643 2615 2599 2621 2652 2672 2693 2766 2735 2732 2662 2730 2800 2782 2850 2881 2889 2899 2968 2998 3041 3037 3015 3053 3026 2979 2955 2902 2885 2887 2930 2927 2913 2973 3025 3048 3011 3019 3233 3271 3303 3315 3319 3342 3391 3442 3432 3378 3356 3333 3390 3436 3438 3464 3551 3570 3523 3460 3425 3397 3330 3236 3225 3249 3217 3193 3137 3074 3099 3108 3151 3177 3171 3158 3043 3016 3010 2972 2931 2900 2922 2966 2997 2920 2844 2816 2758 2731 2683 2777 2879 2852 2772 2738 2809 2895 2853 2905 2980 2961 2958 2941 2939 2878 2791 2685 2610 2641 2495 2438 2477 2490 2472 2410 2337 2317 2258 2219 2186 2192 2208 2236 2302 2281 2355 2379 2401 2437 2517 2541 2589 2611 2680 2668 2745 2713 2690 2673 2659 2564 2501 2585 2663 2711 2703 2619 2508 2414 2382 2293 2265 2240 2256 2285 2324 2389 2462 2385 2286 2259 2155 2093 2116 2164 2114 2154 2182 2237 2277 2209 2126 2102 2073 1956 2009 1857 1814 1810 1789 1749 1851 1776 1795 1898 1932 1911 1903 1886 1780 1651 1621 1552 1538 1499 1498 1541 1483 1479 1480 1444 1355 1421 1439 1448 1469 1396 1411 1381 1397 1318 1238 1299 1317 1330 1272 1250 1115 1059 1096 1109 1201 1243 1167 1130 1184 1203 1305 1382 1389 1331 1174 1169 1102 1069 982 936 967 1072 1196 1241 1127 1154 1212 1254 1386 1485 1472 1494 1486 1470 1513 1653 1670 1803 1829 1770 1804 1778 1687 1774 1821 2149 2212 2125 2005 1981 2006 1943 2037 2057 2136 2137 2156 2188 2216 2304 2316 2441 2579 2545 2644 2566 2491 2489 2509 2647 2917 2861 2845 2855 2810 2729 2709 2628 2609 2503 2459 2416 2424 2342 2221 2319 2405 2425 2398 2442 2434 2381 2374 2362 2320 2248 2198 2069 2109 2088 2074 1962 1991 2003 2099 2174 2131 2052 2056 2029 2077 2082 2122 2138 2161 2230 2233 2267 2184 2168 2151 2261 2322 2340 2404 2415 2435 2439 2569 2653 2676 2656 2756 2748 2808 2837 2865 3022 2984 2999 2983 2957 3006 2933 3036 3027 3002 2995 3067 3090 3101 3150 3143 3072 2981 2982 2877 2928 2836 2822 2769 2737 2708 2681 2691 2747 2775 2786 2664 2695 2639 2636 2603 2576 2552 2507 2475 2446 2339 2283 2229 2333 2296 2252 2312 2393 2356 2420 2458 2526 2568 2518 2547 2573 2640 2670 2734 2699 2728 2880 2864 2787 2704 2629 2607 2626 2597 2496 2468 2502 2461 2423 2376 2272 2251 2318 2411 2452 2488 2535 2558 2592 2625 2544 2456 2440 2412 2287 2242 2150 2222 2365 2445 2531 2546 2638 2710 2755 2649 2739 2757 2773 2841 2883 2970 2988 2866 2832 3120 3097 3054 3021 3046 3091 3113 3084 3012 2882 2909 2894 2929 2849 2687 2660 2622 2578 2631 2634 2666 2726 2762 2789 2803 2802 2821 2764 2727 2694 2720 2760 2768 2795 2851 2947 3040 3038 3088 2964 2978 2932 2923 2834 2848 2701 2759 2825 2820 2908 2921 2976 2989 2919 2891 2893 2884 2860 2833 2754 2700 2801 2784 2722 2624 2586 2642 2692 2617 2616 2635 2571 2575 2548 2590 2554 2654 2596 2484 2392 2345 2380 2417 2443 2454 2330 2297 2274 2175 2051 1958 1990 1953 1868 1865 1876 1961 1759 1793 1893 2002 2121 1930 1988 2008 2080 2106 2203 2303 2321 2473 2431 2344 2246 2211 2143 2100 2021 2041 2045 1964 1949 2034 2035 2040 1982 1993 2049 2081 2036 2016 1984 1916 1897 1773 1750 1615 1631 1704 1812 1738 1787 1807 1777 1840 2778 2806 2819 2798 2969 2991 2916 2835 2888 2872 2869 2906 2963 3056 3070 3159 3181 3189 3237 3360 3325 3279 3277 3221 3222 3238 3299 3328 3407 3450 3457 3543 3475 3402 3361 3289 3379 3323 3381 3483 3626 3731 3683 3552 3487 3472 3539 3520 3553 3615 3838 3750 3730 3773 3830 3843 3951 3894 3948 3891 3918 3993 4009 4020 4062 4060 4192 4134 4240 4268 4312 4333 4306 4243 4052 4083 4136 4188 4235 4375 4293 4360 4428 4483 4569 4620 4769 4898 4959 5042 5105 5169 5263 5381 5427 5344 5271 5311 5353 5258 5162 4850 4829 4801 4920 4889 4775 4735 4606 4551 4517 4501 4536 4522 4497 4422 4297 4213 4247 4353 4320 4229 4203 4251 4270 4281 4218 4146 4150 4106 4107 4129 4033 3996 3885 3866 3939 3946 3812 3772 3723 3693 3647 3495 3620 3558 3609 3960 4025 4061 4043 4019 4024 4069 4139 4118 4087 4018 3992 4027 3990 3959 3935 3786 3727 3703 3764 3789 3826 3869 3919 3860 3895 3995 4045 4091 4141 4224 4278 4405 4462 4426 4441 4364 4318 4340 4266 4105 4072 4017 4047 3963 3865 3822 3777 3598 3416 3414 3326 3331 3288 3292 3359 3435 3532 3458 3567 3516 3484 3393 3344 3287 3257 3213 3262 3294 3423 3383 3338 3394 3363 3533 3678 3768 3747 3521 3439 3418 3348 3297 3254 3312 3223 3207 3199 3215 3122 3200 3194 3127 3205 3226 3371 3461 3499 3535 3604 3636 3696 3708 3827 3927 4085 4097 4182 4144 4151 4142 4053 4058 4071 3967 4057 4180 4210 4308 4338 4352 4395 4436 4413 4449 4432 4368 4361 4402 4479 4549 4604 4552 4512 4505 4473 4415 4367 4419 4389 4350 4418 4504 4776 4871 4936 4993 5024 5088 5027 4984 4880 4872 4968 5050 5064 5093 5142 5224 5184 5236 5389 5274 5304 5289 5329 5378 5429 5428 5415 5144 5017 4971 4809 4802 4680 4824 4877 4742 4663 4544 4655 4665 4591 4524 4587 4562 4535 4486 4437 4442 4478 4530 4595 4639 4736 4986 4982 5026 5119 5082 5268 5360 5388 5217 5292 5335 5451 5469 5514 5558 5609 5578 5608 5631 5679 5745 5784 5746 5725 5705 5706 5680 5654 5655 5632 5681 5747 5826 5874 5891 5912 5932 5951 6038 6037 6011 5890 5931 5873 5911 5930 6010 5950 5872 5825 5824 5871 5889 5870 5910 5947 5948 5949 5973 6036 6009 6100 6201 6361 6351 6257 6161 6133 6134 6207 6265 6357 6315 6350 6388 6412 6618 6614 6657 6698 6790 6787 6749 6820 6832 6913 6925 6869 6777 6669 6637 6597 6537 6472 6502 6473 6367 6325 6241 6173 6174 6264 6219 6101 6102 6063 6064 6135 6202 6211 6232 6278 6136 6500 6587 6479 6421 6452 6313 6268 6203 6300 6458 6572 6547 6474 6527 6603 6699 6735 6771 6693 6658 6721 6766 6798 6892 6855 6781 6801 6717 6701 6736 6649 6599 6518 6522 6584 6687 6737 6784 6803 6932 6916 6900 6841 6903 6944 7074 7125 7130 7154 7041 7026 7008 7027 7059 7090 7035 7002 6969 6871 6782 6762 6724 6779 6811 6860 6893 6875 6865 6945 6884 6829 6793 6739 6688 6642 6624 6532 6453 6414 6363 6297 6190 6103 6065 6012 5952 5913 5892 5953 6013 6066 6214 6240 6272 6291 6331 6256 6176 6243 6104 6178 6191 6249 6345 6364 6310 6404 6521 6528 6560 6641 6743 6751 6510 6496 6582 6633 6643 6691 6755 6833 6821 6805 6863 6850 6887 6894 6998 7119 7080 7029 7060 7131 7155 7183 7126 7153 7108 7114 7056 7024 7014 6999 6974 6990 6928 6853 6727 6714 6666 6689 6651 6680 6644 6569 6480 6425 6370 6338 6371 6442 6533 6506 6437 6459 6573 6625 6661 6705 6728 6673 6645 6602 6574 6514 6444 6362 6405 6439 6478 6538 6619 6674 6726 6756 6839 6896 6823 6794 6686 6540 6663 6711 6577 6523 6468 6406 6417 6475 6318 6209 6429 6356 6304 6266 6215 6175 6213 6251 6308 6378 6334 6254 6231 6164 6137 6138 6039 5894 5933 5893 5875 5808 5829 5786 5766 5708 5709 5787 5895 5975 5974 6067 6139 6068 6105 6228 6259 6181 6245 6352 6462 6529 6511 6427 6288 6233 6224 6177 6269 6106 6069 6014 5954 5846 5750 5726 5686 5685 5633 5612 5613 5614 5560 5538 5539 5561 5496 5515 5562 5473 5453 5402 5390 5432 5431 5373 5221 5156 5129 5066 5123 5196 5269 5200 5166 5170 5102 5057 5148 5121 4937 4885 4821 4879 5039 5120 5124 4979 4919 4846 4737 4588 4520 4423 4371 4359 4301 4200 4257 4316 4365 4450 4495 4602 4693 4710 4794 4766 4647 4560 4416 4279 4262 4717 4786 4803 4851 4865 4904 4969 4960 5054 5127 5137 5279 5233 5183 5287 5365 5409 5408 5471 5470 5579 5658 5610 5657 5683 5656 5682 5707 5765 5827 5844 5845 5807 5828 5785 5748 5749 5684 5611 5580 5559 5493 5494 5452 5375 5337 5327 5288 5218 5060 5113 5207 5298 5385 5347 5413 5430 5472 5495 5406 5382 5401 5313 5280 5214 5249 5125 5100 5033 5195 5047 5001 4908 5002 4934 4978 4892 4873 4921 4859 4795 4712 4681 4642 4607 4567 4446 4315 4252 4319 4325 4378 4429 4506 4695 4616 4599 4637 4694 4747 4783 4768 4731 4627 4592 4621 4683 4744 4825 4884 4787 4656 4641 4558 4542 4518 4463 4484 4421 4444 4345 4321 4256 4276 4237 4271 4302 4487 4452 4400 4328 4264 4248 4186 4101 4108 4121 4133 4159 4135 4076 4031 4000 3950 3886 3867 3872 3888 3806 3743 3686 3611 3589 3562 3544 3420 3350 3335 3224 3170 3164 3117 3081 3152 3139 3172 3126 3073 3156 3145 3165 3239 3385 3504 3468 3491 3455 3388 3353 3307 3622 3560 3503 3476 3451 3502 3395 3404 3372 3266 3369 3526 3590 3632 3699 3754 3762 3844 3914 4005 4028 4088 4098 4158 4208 4249 4299 4374 4581 4519 4556 4460 4456 4397 4372 4305 4241 4214 4143 4081 3986 4103 4157 4046 3909 3807 3973 3974 3949 3901 3813 3715 3648 3606 3571 3616 3679 3704 3717 3751 3793 3862 3900 3936 3947 4063 4145 4172 4309 4317 4347 4398 4488 4572 4623 4555 4548 4513 4545 4570 4534 4496 4516 4475 4417 4406 4403 4307 4238 4187 4110 4082 4066 4056 3978 3932 3944 3892 3840 3801 3729 3575 3601 3799 3790 3818 3760 3721 3628 3629 3527 3706 3779 3809 3877 3846 3882 3725 3724 3642 3587 3665 3763 3896 3819 3920 3969 4036 4012 3911 3868 3864 3847 3925 3981 4051 4050 4044 4073 4161 4207 4184 4153 4239 4219 4131 4177 4160 4152 4191 4216 4283 4334 4294 4263 4227 4176 4089 4065 4099 4190 4164 4167 4234 4337 4341 4349 4500 4553 4532 4657 4605 4561 4528 4531 4614 4651 4699 4804 4734 4791 4818 4890 4902 4843 4780 4860 4891 4813 4862 4915 4933 4867 4830 4805 4750 4726 4704 4886 4876 4856 4831 4758 4658 4670 4728 4852 4765 4727 4690 4675 4815 4834 4897 4945 4923 4955 4997 5192 5299 5351 5322 5376 5340 5394 5370 5278 4640 4646 4659 4653 4617 4644 4608 4626 4579 3572 3709 3716 3794 3851 3832 3814 3831 3377 3424 3466 3545 3602 3561 3658 3688 3603 3584 3565 3583 3926 4094 4128 4185 4225 4198 4231 4284 4275 4633 4660 4760 4619 4638 4634 4684 4701 4719 4781 4808 4853 4835 4839 4810 4770 4745 4671 4632 4563 4631 4580 4796 5043 5199 5222 5331 5180 5087 4924 4931 4941 5044 5077 5118 5259 5250 5114 5091 4972 4925 4994 5283 5168 4988 5028 4929 4998 5305 5411 5341 5439 5481 5487 5467 5239 5312 5424 5379 5441 5574 5573 5588 5577 5550 5526 5511 5501 5488 5478 5485 5508 5521 5547 5605 5590 5572 5618 5600 5586 5599 5604 5649 5640 5647 5669 5623 5651 5796 5905 5906 5927 5925 5920 6024 6022 6005 6046 6054 6062 6114 6113 6096 6149 6247 6299 6392 6384 6258 6276 6283 6826 6808 6886 6940 7109 7276 7284 7330 7305 7358 7242 7213 7160 6848 6740 6707 6677 6873 6759 6668 6604 6548 6508 6376 6344 6279 6180 6184 6143 6128 6126 6199 6226 6292 6465 6456 5865 5858 5804 5802 5798 5794 5776 5650 5667 5666 5665 5694 6081 6075 6057 6074 6118 6234 6487 6416 6631 6562 6590 6449 6375 6446 6461 6489 6340 6158 6087 6045 6079 6123 6542 6576 6490 6426 6346 6262 6236 6328 6383 6435 6525 6566 6596 6634 6697 6627 6561 6607 6659 6715 6775 6802 6792 6872 6936 7006 7032 7046 7069 7078 7018 6879 6825 6885 6965 6957 7023 7082 7139 7087 7106 7174 7147 7137 7117 7146 7124 7097 7058 7003 7005 7030 7049 7076 7038 6995 6979 6949 6847 6935 6898 6864 6899 6902 6888 6970 7011 7017 6952 6909 6816 6786 6812 6852 6804 6695 6652 6670 6745 6621 6486 6422 6399 6438 6504 6552 6660 6773 6753 6846 6924 6948 7000 7039 7159 7121 7206 7194 7129 7230 7235 7287 7346 7331 7295 7253 7208 7225 7270 7315 7376 7395 7364 7400 7412 7391 7403 7417 7379 7356 7344 7296 7286 7227 7171 7133 7165 7203 7201 7289 7361 7355 7384 7405 7392 7396 7388 7390 7416 7401 7393 7410 7233 7170 7013 7081 7037 6960 6901 6972 6877 6867 6769 6844 6694 6758 6747 6906 6991 7098 7173 7277 7307 7385 7420 7329 7248 7189 7210 7196 7211 7251 7301 7319 7340 7350 7394 7435 7413 7409 7415 7311 7280 7231 7260 7272 7271 7219 7162 7061 7112 7084 7172 7181 7175 7199 7178 7157 7099 7065 7048 6955 6810 6983 7007 6959 6980 7028 7083 7051 6971 6526 6407 6394 6031 6055 6085 6119 6084 6076 6080 5792 5879 5857 5886 5901 5855 5775 5791 5833 5856 5918 5937 5959 5989 6044 6088 6025 5987 5958 6018 5981 5992 5936 5900 5878 5854 5899 5832 5790 5853 5917 5957 6029 6049 6003 5979 5980 5969 5991 6007 6052 6061 6094 6116 6110 6141 6163 6235 6341 6287 6225 6166 6121 6127 6148 6169 6112 6059 6083 6056 6043 5999 6019 5998 5982 5956 5985 6017 6027 6028 6053 6109 6111 6151 6196 6281 6327 6396 6239 6204 6162 6129 6095 6048 6023 5995 5986 5988 5916 5852 5831 5773 5715 5716 5754 5774 5755 5733 5456 5545 5544 5520 5585 5584 5617 5543 5567 5566 5616 5583 5519 5328 5277 5383 5367 5355 5393 5364 5291 5244 5225 5178 5219 5206 5154 5140 5112 5104 5051 5030 4944 4967 4948 4977 5095 5111 5167 5204 5185 5163 5130 5103 5146 5136 5171 5186 5232 5261 5392 5455 5476 5542 5582 5637 5638 5693 5732 5714 5664 5636 5692 5731 5772 5851 5813 5753 5789 5850 5898 5915 6042 5978 5955 5984 6030 6090 6093 6115 6124 6389 6484 6517 6575 6622 6696 6723 6676 6713 6795 6868 6870 6918 6768 6785 6789 6851 6842 6710 6690 6578 6585 6558 6516 6469 6336 6290 6218 6230 6208 6108 6072 6140 6200 6267 6332 6355 6503 6559 6646 6592 6448 6411 6455 6329 6192 6195 6227 6343 6397 6477 6564 6524 6501 6431 6368 6359 6280 6193 6186 6142 6073 6091 6117 6160 6210 7190 7232 7252 7238 7186 7075 7025 7086 7134 7177 7214 7244 7285 7297 7312 7318 7341 7366 7373 7370 7351 7368 7348 7299 7255 7234 7278 7322 7304 7265 7256 7224 7262 7222 7283 7300 7323 7335 7293 7246 7254 7308 7290 7223 6834 6746 6797 6712 6626 6588 6591 6476 6415 6366 6551 6610 6650 6764 6706 6654 6620 6571 6433 6354 6312 6238 6167 6165 6250 6270 6296 6317 6261 6229 6172 6248 6293 6339 6391 6445 6492 6546 6615 6730 6788 6858 6923 6958 6975 6951 6922 6854 6796 6750 6862 6915 6976 7071 7055 7047 7088 7072 7053 7015 6934 6946 6961 6857 6815 6760 6818 6778 6720 6600 6617 6639 6460 6335 6301 6260 6244 6513 6450 6409 6348 6353 6303 6194 6040 5977 5914 5897 5848 5810 5830 5768 5769 5770 5728 5689 5663 5634 5615 5690 5711 5729 5771 5811 5877 6107 6071 6041 6015 5935 5849 5812 5752 5691 5713 5751 5730 5712 5635 5565 5540 5517 5499 5541 5581 5518 5475 5380 5272 5230 5301 5359 5354 5330 5396 5317 5267 5234 5276 5264 5205 5187 5128 5061 5089 5153 5190 5173 5275 5366 5324 5237 5229 5152 5110 5075 5099 5023 4996 4976 5046 5072 4987 4447 4390 4331 4357 4409 4295 4286 4273 4226 4205 4261 4242 4196 4169 4154 4093 4109 4001 3850 3744 3791 3863 3906 3983 3933 3915 3904 3924 3975 3994 4079 4116 4086 4170 4221 4282 4457 4469 4481 4521 4557 4612 4649 4589 4622 4678 4752 4855 4866 4928 4989 4922 4777 4330 4230 4272 4376 4537 4674 4713 4749 4807 4957 5031 5151 5210 5188 5293 5316 5361 5323 5369 5332 5228 5198 5007 4962 4938 5058 5145 5177 5397 5433 5516 5498 5474 5368 5116 5247 5348 5391 5454 5497 5564 5563 5688 5662 5661 5687 5727 5660 5659 5710 5767 5809 5788 5847 5876 5896 5934 5976 6070 6217 6294 6179 6255 6216 6298 6311 6326 6413 6613 6530 6515 6428 6372 6358 6483 6583 6675 6638 6655 6682 6757 6881 6917 6856 7068 7110 7149 7187 7164 7151 7197 7192 7247 7264 7310 7437 7460 7466 7473 7470 7464 7462 7452 7440 7408 7333 7314 7279 7259 7239 7216 7200 7180 7094 7044 7113 7120 7091 7031 7050 7021 6950 6827 6943 6931 6837 6763 6719 6731 6733 6791 6876 6905 6866 6772 6799 6744 6708 6752 6843 6824 6927 6897 6992 7033 7066 7116 7148 7176 7141 7221 7145 7184 7243 7245 7317 7282 7324 7398 7423 7448 7461 7469 7479 7488 7492 7499 7491 7434 7421 7374 7381 7418 7424 7439 7446 7451 7472 7482 7485 7487 7495 7500 7504 7508 7516 7512 7505 7498 7507 7514 7515 7518 7511 7506 7501 7494 7490 7477 7475 7471 7430 7380 7407 7360 7326 7332 7325 7313 7229 7228 7250 7343 7371 7387 7432 7450 7456 7443 7411 7352 7288 7207 7101 7132 7100 7036 7043 6861 6822 6780 6831 6895 6933 6956 6982 6954 6977 7045 7070 7105 7107 7136 7161 7167 7185 7209 7217 7266 7309 7419 7428 7433 7436 7441 7404 7362 7298 7302 7354 7372 7422 7367 7226 7156 7128 7042 7054 7093 7140 7144 7169 7198 7212 7193 7218 7257 7294 7263 7274 7337 7378 7389 7357 7338 7365 7334 7347 7383 7442 7457 7449 7476 7481 7468 7474 7484 7496 7497 7503 7510 7520 7524 7519 7502 7509 7513 7517 7521 7529 7530 7527 7531 7528 7525 7526 7522 7523 7533 7532 7535 7542 7551 7553 7548 7560 7566 7572 7580 7570 7564 7562 7556 7558 7549 7547 7540 7534 7538 7545 7606 7616 7642 7651 7646 7647 7640 7626 7623 7614 7603 7591 7571 7565 7594 7608 7612 7648 7636 7619 7643 7645 7655 7631 7617 7598 7583 7609 7593 7597 7587 7563 7561 7557 7577 7585 7575 7567 7582 7576 7574 7568 7578 7581 7589 7596 7586 7592 7611 7620 7625 7613 7599 7588 7604 7629 7622 7660 7665 7683 7677 7687 7695 7694 7679 7672 7635 7627 7634 7656 7666 7668 7661 7675 7671 7669 7698 7662 7639 7650 7896 7921 7936 7926 7867 7852 7800 7798 7774 7728 7709 7706 7722 7715 7719 7708 7716 7734 7745 7759 7783 7796 7797 7772 7760 7737 7724 7710 7700 7696 7689 7690 7693 7664 7649 7633 7632 7641 7654 7658 7659 7681 7703 7697 7692 7686 7673 7670 7680 7674 7739 7765 7766 7775 7795 7776 7740 7730 7750 7735 7704 7727 7792 7789 7791 7788 7804 7817 7872 7851 7831 7820 7823 7848 7881 7898 7892 7915 7924 7905 7934 7939 7972 7956 7961 7947 7938 7923 7933 7886 7846 7842 7828 7890 7955 7982 7987 7964 7965 7980 8000 8019 8012 8026 8034 8047 8078 8201 8193 8074 8082 8053 8046 8048 8045 8035 8032 8018 8020 8029 8040 8051 8077 8067 8073 8066 8086 8058 8146 8140 8127 8106 8096 8076 8084 8088 8103 8118 8112 8114 8072 8056 8044 8055 8071 8059 8030 7983 7970 7950 7932 7930 7908 7900 7877 7873 7866 7847 7825 7723 7702 7714 7684 7718 7705 7688 7579 7554 7555 7539 7544 7550 7546 7543 7537 7536 7552 7541 7559 7573 7569 7584 7601 7610 7600 7615 7624 7628 7657 7676 7663 7638 7637 7644 7682 7678 7667 7652 7653 7607 7618 7605 7630 7621 7595 7590 7602 7862 7868 7880 7919 7914 7869 7844 7827 7794 7810 7819 7833 7829 7807 7799 7785 7771 7779 7743 7764 7757 7685 7749 7769 7778 7768 7756 7738 7755 7746 7754 7767 7786 7809 7812 7824 7830 7841 7822 7818 7821 7811 7816 7834 7838 7845 7856 7913 7894 7888 7871 7874 7882 7899 7897 7889 7879 7883 7854 7860 7859 7850 7861 7884 7895 7901 7916 7935 7960 7966 7971 7958 7962 7973 7990 8011 8013 8014 7998 7994 7981 7984 8010 8008 7995 7996 7989 7979 7974 7952 7945 7949 7943 7920 7951 7957 7969 7985 8031 8039 8054 8070 8093 8098 8115 8131 8141 8138 8151 8164 8158 8177 8172 8153 8178 8174 8137 8130 8134 8125 8126 8105 8095 8111 8091 8081 8068 8057 8023 8033 8037 8065 8099 8128 8123 8121 8124 8145 8163 8183 8196 8206 8208 8191 8161 8144 8129 8120 8097 8100 8113 8079 8064 8052 7993 8087 8109 8085 8148 8160 8167 8188 8154 8135 8116 8092 8075 8062 8042 8038 8069 8036 8025 8021 8005 8017 8022 8016 7991 8004 7997 8001 7986 7988 7978 7967 7959 7976 8003 8027 8024 8015 8009 8006 7999 7992 7975 7968 7977 7963 7954 7948 7941 7946 7911 7925 7942 7927 7917 7909 7893 7870 7891 7906 7910 7902 7903 7865 7863 7853 7836 7837 7815 7839 7875 7878 7857 7858 7849 7835 7843 7840 7826 7814 7802 7805 7787 7777 7770 7742 7733 7720 7712 7711 7707 7725 7744 7752 7782 7801 7808 7803 7813 7806 7790 7781 7773 7761 7751 7748 7731 7758 7747 7729 7721 7717 7699 7691 7701 7713 7726 7736 7780 7793 7763 7741 7732 7753 7762 7784 7832 7855 7864 7876 7887 7885 7904 7907 7918 7937 7929 7940 7928 7912 7922 7931 7944 7953 8002 8007 8028 8043 8166 8182 8195 8200 8210 8202 8218 8220 8194 8181 8173 8179 8165 8157 8155 8136 8132 8119 8104 8094 8083 8060 8049 8050 8041 8063 8090 8101 8102 8110 8139 8143 8133 8147 8150 8156 8175 8190 8203 8215 8199 8211 8246 8245 8243 8242 8229 8227 8223 8213 8209 8214 8222 8226 8230 8232 8236 8240 8244 8241 8237 8239 8231 8225 8238 8233 8228 8224 8234 8235 8219 8221 8216 8212 8176 8187 8197 8207 8217 8198 8189 8186 8171 8170 8162 8117 8108 8080 8061 8089 8107 8122 8149 8169 8180 8205 8185 8204 8192 8184 8168 8152 8142 8159 3957 4006 3966 4026 4092 4113 4148 4277 4244 4255 4228 4285 4348 4464 4458 4420 4369 4351 4327 4289 4363 4474 4491 4596 4723 4788 4882 4888 4963 4917 4949 4958 5018 5068 5055 5126 5238 5345 5265 5215 5181 5245 5147 5133 5202 5285 5363 5308 5423 5463 5509 5528 5534 5569 5525 5458 5484 5477 5410 5417 5260 5226 5281 5208 5150 5083 4916 4964 5021 5101 5085 5052 5015 5138 5155 5270 5319 5302 5333 5358 5307 5266 5296 5318 5197 5176 5141 5216 5174 5108 5078 4946 4939 4932 4878 4798 4733 4583 4635 4664 4773 4858 4799 4800 4869 4926 5098 5074 5201 5209 5290 5314 5338 5464 5502 5530 5531 5606 5607 5676 5646 5699 5737 5756 5888 5945 5967 6002 6008 5961 5997 6006 5970 5965 5939 5942 5964 6000 5990 5968 5966 5993 6021 6001 6016 6047 6051 6078 6122 6130 6157 6125 6153 6274 6330 6400 6509 6594 6535 6498 6609 6534 6385 6277 6187 6494 6593 6635 6681 6859 6840 6761 6718 6767 6722 6685 6667 6586 6466 6395 6441 6419 6380 6319 6333 6320 6379 6482 6580 6608 6579 6398 6491 6554 6454 6424 6393 5757 5736 5780 5835 5884 5861 5881 5883 5866 5859 5840 5822 5820 5816 5719 5721 5740 5761 5763 5777 5781 5799 5803 5817 5836 5839 5924 5940 5928 5922 5919 5907 5882 5887 5868 5837 5821 5793 5778 5762 5741 5717 5698 5695 5700 5734 5720 5701 5697 5673 5642 5644 5672 5603 5602 5597 5593 5639 5622 5598 5619 5591 5621 5626 5643 5668 5670 5648 5675 5625 5589 5568 5553 5571 5595 5601 5627 5576 5548 5510 5512 5483 5505 5503 5480 5434 5466 5513 5532 5533 5551 5552 5527 5500 5504 5479 5465 5459 5422 5440 5446 5462 5443 5414 5374 5295 5255 5284 5386 5350 5349 5342 5384 5418 5437 5457 5444 5421 5416 5300 5251 5254 5135 5211 5240 5212 5107 5143 5164 5073 5003 4974 4985 5037 5019 5008 4947 4909 4887 4761 4732 4738 4819 4848 4910 4895 4841 4797 4748 4702 4720 4789 4844 4849 4874 4905 4914 4942 5004 4973 5065 5005 4961 4822 4793 4762 4743 4697 4574 4559 4440 4425 4453 4391 4424 4401 4410 4332 4300 4171 4059 3998 4132 3961 3889 3921 3913 3884 3848 3854 3954 4008 3953 3878 3810 3774 3666 3643 3651 3591 3525 3508 3489 3437 3429 3375 3318 3272 3219 3362 3510 3554 3511 3408 3459 3471 3485 3578 3608 3592 3659 3682 3753 3746 3775 3823 3858 3710 3664 3607 3663 3661 3576 3547 3349 3320 3274 3220 3250 3284 3198 3157 3066 3104 3057 3005 2946 2977 3076 3103 3075 3042 3029 2956 2937 2954 3132 3160 3178 3231 3286 3357 3354 3370 3463 3492 3449 3398 3321 3270 3174 3136 3115 3052 3058 3049 3082 3098 3017 3033 3034 3013 2940 2950 3008 3047 3083 3107 3112 3203 2918 2867 2818 2823 2926 2815 2796 2839 2862 2804 2702 2765 2677 2633 2783 2751 2830 2863 2843 2875 2959 3003 3018 3035 3068 3124 3681 3627 3654 3732 3765 3770 3784 3795 3874 3997 4054 4122 4206 4010 3942 3907 3937 3989 4023 4096 4147 4165 4199 4246 4288 5235 5131 4826 4842 4778 4672 4466 4477 4343 4407 4431 4485 4546 4630 4679 4696 4753 4784 4792 4722 4667 4568 4565 4673 4610 4529 4471 4445 4433 4355 4329 4274 4236 4166 4194 4125 4080 4007 3903 3875 3782 3748 3689 3639 3540 3481 3497 3494 3534 3563 3624 3672 3618 3550 3447 3410 3345 3311 3234 3253 3275 3358 3443 3411 3144 3125 3100 3064 3039 2962 2771 2749 2678 2613 2563 2539 2580 2618 2572 2513 2453 2419 2394 2457 2514 2591 2532 2594 2549 2522 2474 2436 2395 2370 2348 2290 2239 2224 2165 2083 2135 2159 2098 2079 2026 1926 1813 1763 1782 1838 1867 1904 1987 2017 2070 2075 2176 2060 1998 1936 1934 1959 2033 2076 2061 2112 2054 2001 1985 1939 1927 1839 1895 1905 1979 1954 1913 1875 1879 1852 1720 1743 1752 1676 1751 1757 1655 1667 1664 1647 1563 1546 1526 1548 1568 1632 1637 1646 1741 1791 1729 1703 1611 1567 1600 1624 1551 1553 1524 1440 1413 1387 1426 1432 1527 1481 1506 1606 1604 1555 1467 1408 1360 1427 1492 1549 1556 1570 1636 1628 1656 1700 1658 1744 1725 1710 1659 1582 1512 1623 1626 1523 1539 1476 1454 1420 1409 1429 1450 1353 1365 1316 1180 1176 1268 1200 1226 1245 1295 1352 1361 1322 1372 1442 1455 1511 1558 1516 1482 1663 1680 1754 1753 1747 1711 1595 1583 1598 1622 1698 1683 1762 1701 1648 1594 1534 1515 1487 1490 1587 1620 1652 1735 1723 1688 1727 1769 1679 1682 1707 1768 1805 1847 1855 1825 1850 1849 1841 1890 1941 1978 2004 2085 2145 2101 2090 2118 2190 2214 2231 2323 2388 2375 2426 2444 2464 2515 2562 2587 2551 2512 2492 2536 2559 2421 2465 2608 2604 2529 2505 2511 2506 2390 2384 2358 2406 2433 2378 2325 2350 2349 2335 2377 2386 2341 2311 2278 2245 2217 2271 2234 2213 2295 2310 2292 2194 2263 2309 2275 2227 2218 2189 2228 2206 2215 2291 2332 2359 2347 2360 2372 2451 2500 2533 2570 2557 2479 2478 2528 2556 2595 2605 2698 2696 2657 2623 2598 2627 2658 2637 2667 2736 2794 2828 2763 2719 2752 2744 2706 2753 2811 2854 2876 2873 2793 2733 2780 2846 2898 2967 2912 2951 2934 2827 2776 2797 2859 2890 2924 2949 2960 3007 3060 3023 2992 3045 3092 3032 3024 3102 3093 3128 3175 3227 3214 3209 3245 3202 3153 3146 3191 3180 3232 3242 3244 3278 3302 3403 3469 3426 3399 3341 3446 3462 3513 3594 3650 3653 3676 3701 3740 3735 3705 3674 3612 3564 3621 3671 3656 3649 3593 3610 3637 3655 3713 3695 3684 3749 3718 3720 3694 3667 3644 3600 3566 3536 3512 3599 3585 3555 3573 3546 3519 3482 3434 3340 3313 3259 3204 3509 3412 3401 3380 3417 3300 3255 3301 3384 3441 3467 
