mu1979.tsp
cities: 1979
runs: 100
avg cost: 93817.6
avg steps: 18205
best: 91721

Best route:
1315 1233 1240 1254 1245 1227 1238 1234 1231 1228 1221 1215 1130 1123 1122 1113 1107 1089 1081 1069 993 1015 1000 906 891 881 862 857 869 843 812 746 747 789 830 923 931 942 952 982 975 944 929 903 1034 1040 1066 1126 1070 1045 1038 1026 1029 1053 1057 1063 1036 1041 1044 1055 1105 1135 1164 1185 1182 1204 1163 1188 1235 1154 1125 1079 1090 1104 1087 1102 1097 1155 1162 1226 1262 1306 1365 1371 1377 1374 1378 1379 1387 1390 1323 1319 1331 1294 1263 1252 1222 1191 1203 1190 1194 1197 1299 1313 1314 1310 1416 1432 1446 1454 1460 1461 1478 1483 1459 1468 1472 1504 1496 1495 1498 1501 1508 1521 1511 1526 1522 1523 1533 1549 1505 1500 1492 1490 1475 1480 1469 1444 1434 1417 1414 1424 1452 1465 1438 1401 1392 1406 1412 1433 1470 1491 1488 1485 1493 1486 1528 1535 1534 1537 1548 1557 1570 1574 1559 1532 1524 1516 1515 1514 1489 1458 1399 1376 1373 1369 1353 1332 1324 1302 1303 1293 1287 1296 1312 1320 1334 1343 1345 1344 1350 1366 1362 1413 1391 1393 1430 1418 1400 1410 1405 1388 1370 1368 1356 1348 1329 1317 1307 1304 1311 1305 1308 1290 1280 1270 1279 1253 1258 1261 1246 1237 1230 1206 1216 1193 1166 1165 1186 1171 1139 1124 1112 1094 1073 1086 1088 1091 1072 1068 1033 1039 1049 1060 1059 1075 1095 1101 1111 1119 1132 1143 1142 1145 1152 1157 1160 1151 1169 1174 1212 1232 1247 1201 1257 1250 1241 1242 1224 1181 1167 1149 1099 1092 1082 1077 1054 1051 1042 1050 1067 1084 1048 1023 1008 976 943 924 904 897 863 860 866 859 856 837 855 858 873 890 907 899 911 920 919 983 954 917 889 877 847 778 819 813 783 753 685 727 734 756 795 804 845 861 878 871 870 902 985 996 1006 1012 948 932 935 835 775 776 654 731 733 707 634 616 603 618 630 684 695 651 639 613 585 548 549 568 623 655 656 664 689 720 736 766 765 791 806 787 781 767 758 764 816 820 809 801 780 743 740 771 798 844 841 852 849 834 896 921 927 933 937 980 970 957 956 961 965 994 1016 1020 1035 1037 1047 1064 1109 1115 1175 1146 1153 1158 1144 1133 1121 1117 1100 1120 1127 1134 1172 1173 1196 1207 1249 1338 1359 1357 1358 1352 1354 1347 1342 1340 1341 1309 1200 1189 1118 1085 1058 1056 1046 1032 938 934 922 821 773 748 729 711 741 779 790 825 822 842 840 865 803 810 802 800 799 811 793 808 807 814 817 826 832 839 868 885 850 828 829 769 762 755 750 725 705 681 679 690 694 702 701 724 728 752 745 751 716 708 659 633 636 619 620 665 644 643 647 671 666 657 713 677 607 562 535 528 527 519 511 503 512 588 573 572 529 520 536 550 521 530 522 513 494 504 523 524 552 563 537 531 551 565 577 591 609 621 628 626 641 640 624 632 614 648 673 676 670 663 678 680 726 738 735 744 761 763 742 759 757 698 686 693 704 714 737 749 770 774 782 788 846 785 772 712 687 642 658 650 627 622 615 610 594 538 532 505 495 457 447 456 455 446 474 467 454 445 444 453 466 473 493 490 487 452 442 443 312 416 411 420 429 415 397 342 437 424 288 263 261 245 241 227 221 224 222 217 214 211 207 205 212 197 190 182 186 177 176 178 181 183 185 188 189 194 208 193 192 187 184 180 174 173 172 16 1 2 3 4 6 5 17 7 8 9 13 18 22 26 24 33 31 14 12 19 10 15 21 29 32 27 48 46 37 40 56 63 68 66 64 65 87 85 77 86 89 83 117 119 131 154 160 165 171 166 162 167 168 163 159 141 134 129 125 124 123 103 110 101 98 102 99 96 90 81 91 106 88 104 135 142 147 155 158 148 149 112 111 116 130 157 169 143 132 146 133 126 72 58 84 95 120 121 114 107 94 69 57 53 41 45 49 51 52 23 25 20 36 42 39 61 79 92 105 113 76 75 70 60 62 74 80 97 118 122 144 138 136 140 152 150 156 153 145 139 100 115 127 137 161 170 151 128 164 108 67 73 82 109 93 78 71 59 50 43 34 30 44 55 47 38 35 11 28 54 175 179 191 196 201 206 199 203 210 195 198 200 202 204 209 213 215 216 218 219 220 223 248 256 255 260 264 265 273 266 257 237 226 228 225 229 232 233 235 231 230 234 236 238 242 247 251 250 240 239 243 244 246 249 252 253 254 258 259 262 268 267 270 271 274 275 276 269 272 277 279 285 289 293 295 301 304 307 306 299 296 291 286 283 284 281 282 292 294 290 278 280 287 297 298 302 303 305 315 320 314 316 321 324 323 331 340 349 368 357 359 353 339 336 327 330 351 365 373 372 376 381 380 390 391 401 355 347 363 375 384 387 398 405 412 425 419 406 407 410 409 408 413 393 389 385 371 374 367 360 358 346 338 318 319 335 313 328 332 333 326 325 343 386 370 362 361 383 392 404 432 435 436 449 439 440 423 422 403 402 421 427 430 426 433 441 500 557 561 596 558 546 547 540 541 553 554 580 586 646 662 683 691 700 715 718 706 710 709 722 688 739 732 730 721 699 589 582 674 719 661 612 570 587 575 566 544 545 556 543 539 534 496 491 486 483 476 475 463 428 399 394 377 382 388 378 369 356 350 348 352 354 344 311 300 308 309 310 317 322 329 334 337 341 345 364 366 379 395 414 418 400 396 417 431 448 451 468 472 488 470 489 510 514 518 515 516 508 501 497 506 526 560 567 579 574 578 598 682 669 625 606 590 672 838 851 867 872 879 876 900 901 883 853 703 697 717 723 760 792 875 887 912 949 960 998 1005 1003 1024 1030 1043 1028 1062 1071 1076 1078 1083 1110 1129 1141 1150 1159 1147 1140 1137 1148 1170 1176 1187 1208 1209 1219 1260 1266 1264 1198 1161 1128 1106 1098 1061 1065 1031 1021 1011 1019 1009 1002 1004 1007 947 893 894 958 940 916 913 898 874 848 827 815 797 692 637 635 631 608 597 601 605 595 599 600 584 653 576 571 555 542 533 492 509 507 482 502 499 498 471 465 459 458 461 434 438 450 460 462 464 469 477 478 479 481 485 484 480 517 525 559 569 652 638 629 611 604 593 581 564 592 583 602 617 649 645 660 667 675 668 696 754 784 768 777 805 786 794 796 818 824 836 831 823 854 886 895 918 914 926 915 888 882 909 905 910 892 884 833 864 880 908 925 928 992 997 1014 1025 1052 1108 1192 1202 1211 1243 1248 1256 1267 1269 1276 1284 1292 1291 1289 1288 1283 1275 1295 1301 1298 1297 1286 1272 1271 1274 1281 1265 1273 1244 1236 1229 1223 1218 1214 1217 1205 1199 1220 1213 1251 1285 1300 1318 1316 1325 1333 1330 1327 1255 1225 1210 1177 1116 1096 1103 1080 1074 1093 1114 1131 1138 1156 1178 1168 1180 1184 1022 1017 1018 1010 990 972 955 936 966 979 963 968 977 978 974 987 991 995 1013 989 988 984 986 971 981 973 969 964 959 967 962 953 951 946 950 945 941 930 939 999 1001 1027 1136 1179 1195 1183 1239 1259 1268 1336 1322 1335 1337 1339 1349 1355 1380 1383 1367 1372 1381 1386 1385 1382 1389 1384 1394 1396 1397 1402 1361 1375 1411 1398 1395 1404 1403 1409 1407 1415 1419 1427 1426 1421 1425 1422 1429 1408 1420 1431 1437 1441 1442 1447 1451 1439 1450 1455 1445 1435 1423 1428 1440 1443 1448 1456 1457 1453 1449 1462 1464 1467 1466 1471 1474 1476 1477 1479 1463 1481 1482 1484 1473 1487 1503 1497 1507 1510 1513 1506 1512 1520 1527 1531 1541 1536 1538 1542 1547 1551 1552 1553 1554 1558 1560 1564 1569 1571 1575 1580 1582 1581 1583 1585 1592 1598 1593 1601 1600 1591 1587 1584 1579 1588 1602 1605 1606 1607 1610 1608 1620 1621 1623 1624 1627 1629 1630 1631 1633 1642 1644 1635 1649 1654 1655 1657 1658 1648 1650 1661 1663 1669 1664 1662 1665 1659 1656 1653 1628 1641 1632 1619 1615 1603 1604 1597 1577 1578 1567 1568 1563 1540 1556 1555 1566 1576 1590 1589 1596 1595 1594 1618 1622 1626 1625 1637 1646 1636 1645 1652 1660 1670 1674 1688 1692 1693 1696 1715 1723 1727 1731 1733 1734 1735 1736 1740 1747 1745 1737 1725 1712 1701 1682 1687 1689 1684 1667 1647 1638 1639 1640 1671 1685 1680 1681 1668 1672 1673 1675 1676 1677 1686 1683 1690 1691 1695 1700 1702 1703 1704 1705 1706 1709 1711 1713 1714 1716 1718 1722 1717 1721 1724 1726 1728 1729 1730 1732 1739 1741 1742 1743 1744 1746 1748 1749 1752 1758 1759 1764 1767 1768 1775 1774 1780 1786 1784 1789 1787 1783 1779 1776 1777 1770 1772 1782 1788 1790 1792 1791 1793 1796 1802 1798 1795 1794 1799 1800 1801 1805 1807 1809 1810 1811 1818 1820 1822 1828 1832 1840 1839 1842 1833 1824 1827 1831 1835 1844 1838 1829 1812 1815 1813 1819 1826 1823 1821 1825 1837 1845 1834 1841 1856 1883 1893 1898 1890 1885 1879 1859 1862 1857 1852 1875 1863 1869 1858 1860 1916 1920 1937 1942 1949 1943 1955 1951 1958 1965 1968 1969 1972 1970 1973 1974 1975 1977 1978 1979 1976 1971 1967 1966 1964 1961 1962 1963 1960 1956 1947 1939 1936 1934 1922 1918 1914 1911 1909 1908 1913 1910 1915 1923 1930 1933 1928 1935 1938 1944 1946 1950 1945 1940 1932 1919 1912 1917 1926 1925 1931 1924 1929 1941 1948 1952 1953 1957 1959 1954 1927 1921 1907 1894 1887 1880 1881 1886 1884 1888 1891 1892 1896 1895 1899 1905 1904 1900 1906 1897 1901 1902 1903 1889 1876 1861 1877 1872 1874 1868 1882 1878 1873 1866 1850 1847 1853 1851 1855 1865 1871 1870 1867 1864 1854 1849 1846 1848 1843 1836 1830 1814 1817 1816 1808 1806 1804 1803 1797 1785 1781 1778 1773 1771 1769 1766 1765 1763 1761 1762 1755 1754 1753 1756 1757 1760 1750 1751 1738 1719 1720 1710 1707 1708 1699 1698 1694 1679 1678 1697 1666 1643 1651 1634 1611 1599 1586 1616 1614 1617 1612 1613 1609 1346 1351 1360 1509 1517 1525 1519 1518 1529 1543 1561 1565 1572 1573 1562 1550 1544 1545 1546 1539 1530 1502 1494 1499 1436 1277 1278 1282 1364 1363 1328 1326 1321 
