zi929.tsp
cities: 929
runs: 929
avg cost: 102908
avg steps: 7116.16
best: 99298

Best route:
910 911 913 916 918 917 900 895 908 914 919 921 923 928 926 925 922 924 927 929 920 915 909 903 896 897 901 906 902 890 893 892 889 870 867 857 850 856 863 875 886 887 881 880 883 877 843 838 837 868 861 851 832 829 841 825 830 820 780 822 823 746 598 534 521 520 508 550 589 627 576 622 650 632 626 639 797 826 834 760 745 649 638 648 755 817 840 849 853 876 869 859 845 839 865 866 873 884 879 878 874 872 882 871 862 858 855 836 835 827 831 805 611 529 610 596 604 609 616 621 620 612 607 603 594 595 590 599 608 586 591 587 581 580 573 578 570 569 585 577 572 557 548 541 558 542 527 528 533 519 507 500 499 481 472 464 456 449 463 455 442 430 422 421 415 416 404 405 395 397 406 399 410 409 417 423 431 432 424 420 411 400 396 388 390 389 387 383 379 377 353 376 342 343 340 345 341 332 338 364 374 371 368 367 380 433 450 451 494 501 465 563 574 588 597 628 629 646 724 684 659 643 669 678 671 667 703 698 675 658 657 660 670 674 677 656 668 679 681 682 685 695 694 700 712 719 725 732 728 713 704 699 697 702 690 689 672 652 655 645 640 653 644 651 654 661 666 696 710 711 721 734 736 740 750 751 761 772 786 783 781 770 765 747 739 752 756 742 737 722 733 723 731 718 715 706 692 683 676 691 705 708 701 693 680 665 673 642 641 707 717 709 720 764 762 773 782 779 774 790 801 800 802 799 792 785 787 776 768 763 757 735 738 729 716 714 749 753 759 769 775 798 810 809 807 806 816 808 793 791 777 771 758 741 754 767 748 743 766 788 784 789 804 803 813 815 814 812 819 833 828 842 846 860 848 852 847 796 730 630 592 593 575 614 571 502 482 483 473 438 425 515 559 617 633 818 824 688 821 647 637 631 613 579 413 466 495 530 543 549 484 426 373 336 322 323 337 359 384 366 355 363 360 348 339 333 331 308 309 288 179 80 77 72 65 35 16 50 58 57 48 43 76 95 91 98 102 205 154 238 204 181 183 175 186 188 200 215 228 234 223 194 191 187 180 177 174 173 182 185 193 195 190 197 208 216 203 206 207 209 212 226 235 222 218 229 202 199 214 217 227 231 225 233 224 211 196 184 189 178 176 172 169 167 163 158 156 141 152 145 149 161 164 168 170 159 153 157 146 147 155 160 166 162 148 144 131 110 109 106 92 101 105 111 116 118 119 125 121 134 127 123 128 126 136 143 150 142 138 140 137 135 124 120 115 104 114 130 117 129 139 165 171 151 113 112 122 108 107 99 96 87 83 74 69 51 53 54 56 55 61 64 70 75 67 71 59 62 36 34 29 30 31 14 18 20 11 3 4 5 10 21 15 13 28 38 39 45 47 33 37 52 79 68 66 73 60 89 132 257 274 273 298 282 272 266 265 261 270 271 286 316 310 304 305 307 294 262 252 133 97 103 230 220 192 198 210 213 219 221 232 244 249 250 246 242 239 241 236 240 243 248 247 253 256 258 268 277 263 259 264 280 281 278 276 292 313 329 318 296 312 320 350 375 365 370 335 324 302 301 291 287 290 267 279 295 289 299 300 303 311 317 321 357 362 354 326 330 352 351 369 372 381 391 412 443 437 398 361 319 315 285 275 314 293 284 260 88 86 82 81 78 90 201 100 63 40 44 32 25 24 23 26 12 17 27 19 9 7 1 6 2 8 22 41 42 46 49 85 84 94 93 251 254 269 283 237 255 297 306 245 325 327 328 344 334 346 347 349 358 356 378 382 386 394 393 392 385 403 402 401 414 408 441 436 429 428 419 407 418 454 448 469 458 447 453 457 476 497 475 468 452 445 446 435 427 440 434 444 439 509 467 474 485 496 510 511 512 524 525 536 539 538 544 535 523 516 522 551 560 564 565 566 545 552 546 540 531 517 486 477 487 503 513 514 488 470 478 489 479 459 480 491 490 498 518 504 471 460 461 462 493 506 492 505 526 537 532 547 556 568 567 562 555 561 554 553 582 583 584 602 606 601 605 600 618 619 623 615 624 625 726 794 811 662 744 686 663 636 634 635 664 687 727 778 795 844 854 864 885 888 898 891 894 899 904 905 907 912 
