uy734.tsp
cities: 734
runs: 734
avg cost: 85340.9
avg steps: 5127.21
best: 83192

Best route:
17 10 8 4 5 7 2 11 6 3 1 16 18 27 47 77 93 84 85 79 80 81 86 91 115 127 110 109 118 133 181 182 213 209 229 240 242 248 271 314 326 325 322 337 338 348 353 313 317 296 295 269 262 270 263 281 289 257 247 256 246 215 192 171 170 184 196 187 169 165 162 180 190 191 195 212 237 253 292 331 352 365 343 312 306 294 266 245 208 126 120 121 124 123 105 100 95 83 69 60 55 92 98 113 104 108 112 107 119 131 137 142 140 134 132 125 143 147 151 163 161 157 156 160 167 168 179 178 176 159 150 186 200 199 207 230 233 235 251 243 244 239 224 231 227 220 205 234 236 252 261 265 301 280 272 268 267 274 284 277 305 330 336 332 340 364 368 392 390 411 424 395 381 401 387 372 374 375 384 419 453 459 447 446 451 448 439 438 416 410 408 418 422 436 442 435 458 475 478 497 511 503 488 492 489 514 535 537 498 499 508 493 485 479 465 454 462 470 480 494 500 490 504 476 443 426 412 402 357 379 421 449 455 460 472 463 473 483 481 501 515 520 522 519 513 509 518 527 544 543 539 517 512 526 523 536 558 559 551 591 614 623 633 618 622 632 630 613 585 576 572 602 621 590 567 580 589 612 617 611 584 579 575 557 601 600 578 560 556 542 562 571 581 577 548 564 588 586 607 637 642 665 671 664 650 659 663 687 691 697 715 721 720 708 704 709 705 696 695 688 685 678 672 666 658 655 651 644 645 646 643 640 631 624 610 604 616 619 615 606 599 592 573 552 541 534 533 486 507 530 538 555 570 605 609 629 628 627 654 660 674 682 701 710 713 717 718 719 731 730 728 729 733 732 727 726 725 714 707 702 703 706 711 722 716 699 700 698 690 686 681 677 673 669 657 638 625 620 574 563 598 626 647 649 662 689 680 684 670 656 648 636 635 639 653 676 675 694 724 693 683 679 668 661 641 582 597 583 587 561 550 529 510 506 521 525 491 484 450 434 432 423 413 414 386 360 369 370 378 400 371 335 346 345 339 328 329 300 321 324 316 298 291 310 323 334 342 351 341 355 344 359 373 363 347 304 273 260 276 264 241 226 203 189 175 166 155 139 130 135 149 154 153 174 183 194 219 223 225 232 238 218 217 211 202 173 177 198 201 255 259 288 287 290 286 283 258 254 250 275 307 320 308 299 311 333 356 376 377 380 383 405 406 417 430 433 431 437 457 477 487 502 505 569 603 596 568 692 723 734 712 652 634 667 595 565 594 608 593 549 545 546 553 540 531 516 524 566 532 547 554 528 496 474 441 409 389 420 429 428 445 469 471 456 444 425 404 394 391 399 427 466 482 495 467 468 461 464 452 440 415 403 388 393 385 396 397 407 398 382 350 354 367 366 362 349 361 358 319 327 315 303 282 279 309 318 302 297 293 285 278 249 221 210 204 214 228 222 216 206 193 197 188 185 172 158 164 144 136 116 128 152 148 145 141 129 102 101 94 106 122 138 146 103 99 96 87 78 64 82 97 117 114 111 88 61 59 35 32 30 33 37 48 52 57 89 90 70 62 65 71 49 42 38 31 29 20 14 9 13 12 15 23 24 26 28 34 39 51 43 40 41 44 50 54 63 53 56 66 72 73 74 75 76 67 68 58 45 46 36 22 25 21 19 
