Best cost: 9353
Time: 69.6803
Route:
87 76 75 78 72 74 69 60 57 45 37 27 22 29 28 33 18 21 24 26 17 7 11 14 25 23 13 16 8 6 1 4 2 3 5 9 10 12 15 19 30 32 31 35 42 50 55 49 44 38 41 46 48 54 52 53 56 58 43 40 34 39 47 51 61 67 73 66 68 64 70 77 84 81 79 83 88 92 97 95 96 93 91 103 102 109 113 114 119 122 118 106 105 107 108 100 110 112 115 116 117 121 120 123 124 128 133 135 129 131 136 143 148 160 166 171 185 193 188 189 191 192 190 187 183 186 194 182 176 169 161 163 164 172 179 174 173 175 184 177 181 178 180 170 167 168 165 159 158 162 155 151 147 152 141 144 150 153 157 154 139 138 142 146 149 156 145 140 137 134 132 126 125 127 130 111 104 101 99 94 89 90 98 86 85 65 20 63 36 59 62 82 71 80 
