Best cost: 79412
Time: 363.352
Route:
376 389 409 420 429 428 445 425 404 394 391 399 427 466 456 444 471 469 474 496 528 554 547 532 524 566 634 652 667 595 565 594 608 593 549 545 546 553 540 531 516 482 495 467 468 461 464 452 440 415 403 388 393 385 396 397 407 398 382 366 367 354 350 307 320 308 283 275 258 254 250 282 303 315 327 349 362 361 358 319 309 318 302 297 293 285 278 279 249 221 210 204 214 228 222 216 206 193 197 188 185 172 158 164 144 136 116 102 128 129 141 145 148 152 198 201 177 173 202 211 217 218 223 225 219 194 183 174 154 153 146 138 122 106 101 94 87 78 96 99 103 135 149 166 175 189 203 226 241 264 276 304 273 260 232 238 255 259 288 287 286 290 299 311 356 333 347 363 373 359 344 355 341 351 342 334 323 310 291 298 316 324 321 300 284 274 277 267 268 272 280 305 301 330 336 332 340 364 368 408 418 410 416 422 436 442 458 435 400 378 370 371 335 346 345 339 328 329 360 369 386 414 413 423 432 434 450 484 491 525 521 506 510 529 563 574 620 638 625 627 628 629 644 645 646 651 658 655 643 640 631 609 605 570 555 538 530 533 507 486 475 478 497 534 541 552 573 592 599 606 615 619 624 616 610 604 588 586 564 548 511 503 488 492 489 514 535 537 498 499 508 493 485 494 490 500 523 536 526 517 512 504 476 462 454 465 470 480 479 453 459 447 446 451 448 439 438 392 390 411 424 395 381 365 352 331 343 312 306 294 266 265 261 252 236 234 205 220 227 231 224 239 244 243 251 235 233 230 207 199 186 200 176 178 167 179 168 163 161 157 160 156 159 150 155 139 130 117 114 111 97 82 64 32 30 33 35 37 48 52 57 59 61 88 107 112 119 131 137 142 140 151 147 143 125 132 134 113 104 108 90 89 70 62 65 71 49 42 38 31 29 20 14 9 13 12 15 23 24 26 28 34 40 39 43 51 55 60 69 92 98 83 95 100 120 126 121 124 123 105 72 73 74 75 76 68 58 67 63 54 44 50 53 56 66 41 21 19 17 10 8 4 5 7 2 1 3 6 11 25 22 18 16 27 36 45 46 47 77 93 84 85 79 80 81 86 91 115 127 133 118 110 109 170 171 184 196 187 195 191 169 165 162 180 190 208 245 253 292 295 296 317 313 289 281 263 270 262 269 237 212 215 192 181 182 209 213 246 256 247 257 229 240 242 248 271 314 326 325 322 337 338 348 353 375 374 384 387 372 401 419 426 443 412 402 357 379 421 463 449 455 460 472 483 473 481 501 515 520 522 519 513 509 518 527 544 539 543 551 559 558 576 585 591 614 623 633 632 622 618 613 630 602 572 567 590 621 612 617 589 580 575 579 584 611 601 600 578 557 560 556 542 562 571 581 577 607 637 642 650 665 671 664 659 663 687 691 697 715 721 720 719 718 731 730 728 729 733 732 727 726 725 722 716 711 706 699 690 686 681 674 682 698 700 703 702 707 714 717 713 710 701 704 708 709 705 696 695 688 685 678 672 666 654 660 669 657 677 673 662 649 647 626 598 587 561 550 583 582 597 639 635 636 648 656 670 680 689 684 676 653 675 683 694 724 734 723 712 692 693 679 668 661 641 603 569 596 568 505 502 487 477 457 437 431 433 430 441 417 406 405 383 380 377 
