Best cost: 95672
Time: 440.569
Route:
355 366 363 360 348 339 333 331 308 309 288 179 80 77 72 65 35 16 50 58 57 48 43 76 95 91 98 102 62 59 34 36 29 20 30 31 14 18 11 3 4 5 10 21 15 13 28 33 37 19 27 52 79 68 66 73 60 47 38 39 45 51 53 54 56 55 61 64 67 71 70 75 69 74 83 87 96 99 230 103 97 89 133 132 257 274 273 282 272 266 265 261 270 286 271 315 319 330 326 316 310 304 305 298 307 294 252 262 289 299 300 303 321 317 311 295 279 290 287 267 244 249 250 246 242 239 248 247 243 241 240 236 227 231 225 233 224 211 199 189 178 176 172 169 167 165 184 196 210 198 213 219 221 232 220 192 171 151 107 113 112 122 108 139 129 117 130 114 124 120 115 104 101 92 154 205 238 204 181 183 175 174 177 180 187 191 194 186 188 200 215 223 228 234 226 212 209 207 206 203 216 222 218 208 197 195 193 185 182 173 157 146 147 155 160 166 162 148 144 131 110 106 109 105 121 125 134 127 119 118 111 116 123 128 126 153 159 150 143 136 135 137 140 138 142 149 145 152 141 156 158 163 161 164 168 170 190 202 214 217 229 235 253 256 258 268 263 259 264 277 302 301 291 324 335 370 365 375 350 329 318 320 312 296 280 281 278 276 313 292 322 323 337 336 373 426 484 549 466 495 530 543 579 613 638 648 649 745 817 755 647 631 637 688 821 840 849 853 876 869 859 845 824 818 839 730 796 630 592 593 575 571 614 633 617 559 515 438 425 413 357 362 354 352 351 369 372 381 391 473 483 482 502 443 437 412 361 398 465 563 574 588 597 501 494 451 450 433 367 368 371 380 374 364 338 332 341 345 340 343 342 376 353 334 283 269 251 254 260 284 293 314 275 285 201 100 63 40 44 32 25 24 23 26 17 12 7 9 1 6 2 8 22 41 42 90 78 81 46 49 82 86 85 84 88 94 93 237 255 297 306 245 325 327 328 344 347 346 349 358 356 378 382 386 385 392 393 394 395 397 389 387 383 379 377 388 390 396 400 411 420 424 432 431 430 423 417 409 410 399 406 405 404 415 416 422 421 408 403 414 402 401 407 418 419 428 429 436 441 459 490 491 480 460 461 471 462 492 505 504 526 518 498 489 479 478 454 448 470 469 458 447 453 457 476 486 477 487 488 514 503 513 517 512 524 525 531 536 539 545 538 544 535 522 516 523 510 511 497 496 485 475 468 474 467 452 445 446 435 440 427 434 444 439 509 551 560 564 565 566 552 546 540 553 554 561 555 562 567 568 602 606 605 601 584 583 582 600 618 619 623 615 624 625 726 794 811 662 744 686 663 727 778 795 687 664 635 636 634 616 609 604 610 596 587 591 586 580 581 573 578 590 599 608 621 620 612 607 603 595 594 585 577 572 556 547 537 532 557 548 569 570 558 542 541 527 506 493 463 455 442 449 456 464 472 481 499 500 507 519 528 533 529 611 805 831 827 835 836 816 806 807 809 810 798 787 776 785 792 799 802 800 801 790 774 779 782 773 762 764 737 720 709 717 707 641 642 673 665 680 693 701 708 705 691 676 683 692 706 715 723 722 733 742 756 752 739 731 718 710 696 666 661 654 651 644 653 672 655 652 640 645 656 668 679 681 694 695 685 682 677 674 670 660 657 658 675 667 671 678 669 643 659 684 703 698 714 716 729 738 735 725 719 712 700 702 690 689 697 699 704 711 721 713 728 732 751 750 740 736 734 747 765 770 781 783 786 772 761 768 763 757 749 753 759 769 775 777 771 758 741 754 748 743 767 791 808 793 789 804 803 813 815 814 788 784 766 724 646 629 628 812 819 833 828 842 846 860 848 847 852 865 866 873 884 879 878 874 872 882 871 862 858 855 864 844 854 885 888 898 891 894 899 904 905 907 912 910 911 913 916 918 917 900 895 908 914 919 921 923 928 926 925 922 924 927 929 920 915 909 906 902 901 897 903 896 868 861 851 841 830 820 822 823 746 780 825 829 832 837 838 843 863 877 883 887 880 881 875 886 890 893 892 889 870 867 857 850 856 834 826 797 760 639 626 632 650 622 576 627 589 550 508 520 598 534 521 384 359 
