Best cost: 173789
Time: 11831.7
Route:
6776 6794 6817 6856 6903 6860 6861 6805 6741 6711 6657 6590 6527 6526 6548 6450 6391 6244 6315 6358 6344 6341 6340 6269 6217 6175 6170 6135 6136 6062 6116 6040 6017 6012 5974 5887 5877 5964 5886 5790 5836 5883 5871 5789 5799 5812 5725 5756 5777 5811 5896 5926 5902 5919 5776 5707 5682 5660 5655 5582 5517 5554 5495 5614 5519 5446 5442 5488 5437 5396 5391 5374 5322 5357 5412 5448 5555 5603 5591 5670 5727 5699 5659 5563 5535 5616 5665 5643 5607 5663 5730 5734 5735 5717 5700 5708 5786 5806 5769 5813 5808 5782 5828 5906 5965 5966 6047 6083 6110 6146 6131 6173 6249 6245 6292 6307 6324 6335 6310 6232 6205 6178 6142 6065 5920 5907 5829 5878 5791 5763 5775 5669 5536 5534 5444 5397 5349 5335 5289 5308 5352 5430 5419 5456 5494 5537 5576 5608 5650 5599 5597 5561 5524 5484 5523 5482 5479 5434 5350 5236 5241 5218 5186 5116 5061 5101 5059 5098 5154 5211 5288 5201 5145 5100 5026 4996 4928 4866 4859 4881 4987 4886 4801 4832 4955 4897 4805 4771 4755 4740 4733 4695 4692 4689 4729 4728 4666 4621 4708 4633 4551 4591 4609 4719 4744 4752 4802 4869 4903 4976 4977 5009 4978 4937 4857 4828 4884 4927 4958 5014 5052 5042 5023 4936 4879 4911 5045 5038 5068 5121 5113 5109 5099 5069 5060 5032 4956 4923 4908 4842 4829 4766 4685 4745 4734 4696 4679 4613 4519 4473 4469 4449 4339 4319 4240 4409 4459 4587 4585 4672 4661 4787 4920 4954 4905 4887 4990 4938 4882 4873 4807 4730 4846 4913 4952 4874 4951 5010 5080 5043 5067 5124 5131 5107 5126 5185 5242 5266 5334 5255 5313 5333 5404 5424 5485 5496 5477 5422 5425 5525 5533 5583 5566 5546 5585 5654 5648 5620 5609 5701 5809 5844 5903 5950 5946 5885 5838 5772 5774 5743 5709 5764 5816 5845 5865 5921 5927 6025 6101 6010 6033 6080 6061 6091 6176 6218 6189 6149 6127 6090 6114 6049 6089 6119 6148 6174 6084 6009 6013 5980 5992 6001 5930 5938 5884 5835 5814 5770 5718 5692 5690 5516 5508 5501 5436 5395 5338 5332 5277 5281 5220 5200 5155 5187 5232 5189 5162 5204 5213 5138 5072 5097 5117 5161 5178 5225 5286 5375 5417 5418 5359 5312 5252 5392 5427 5455 5500 5604 5683 5742 5859 5868 5940 5897 5857 5801 5731 5693 5653 5606 5611 5605 5666 5671 5726 5783 5792 5888 5904 6000 5916 5901 5761 5729 5771 5794 5793 5863 5993 6048 6098 6133 6147 6088 6188 6260 6308 6359 6413 6449 6487 6451 6530 6549 6595 6625 6637 6660 6618 6594 6528 6453 6513 6554 6599 6647 6676 6691 6728 6750 6784 6785 6809 6830 6823 6849 6837 6801 6788 6774 6731 6705 6739 6672 6626 6558 6489 6405 6441 6460 6389 6388 6360 6293 6346 6398 6484 6531 6591 6641 6634 6639 6663 6771 6795 6843 6851 6831 6787 6751 6734 6839 6818 6740 6790 6868 6954 7056 7058 7062 7064 7069 7073 7081 7088 7089 7091 7093 7094 7135 7137 7138 7127 7136 7133 7121 7128 7131 7134 7120 7118 7115 7113 7129 7119 7114 7112 7116 7106 7105 7107 7109 7111 7117 7122 7130 7132 7141 7143 7142 7144 7145 7140 7108 7103 7099 7097 7095 7139 7123 7110 7104 7098 7096 7087 7079 7082 7086 7090 7092 7063 7052 7032 7027 7041 7050 7043 7019 6994 7002 6998 7003 6995 6969 6940 6964 6955 6929 6902 6871 6835 6829 6722 6700 6678 6721 6760 6736 6744 6824 6890 6697 6715 6789 6854 6898 6992 7040 6996 6958 6939 6885 6882 6895 6862 6833 6783 6752 6759 6742 6708 6669 6677 6661 6640 6619 6555 6493 6414 6407 6482 6467 6386 6339 6251 6138 6233 6267 6282 6312 6270 6222 6198 6234 6254 6264 6279 6313 6325 6347 6326 6385 6404 6387 6458 6486 6494 6540 6581 6604 6690 6631 6544 6454 6537 6576 6605 6642 6597 6535 6475 6463 6428 6419 6381 6446 6464 6382 6235 6181 6117 6193 6162 6150 6087 6085 6042 6026 5951 5873 5988 5989 6050 6044 6077 6071 6003 5923 5891 5922 5766 5672 5642 5765 5757 5719 5680 5600 5526 5468 5428 5398 5346 5510 5469 5470 5449 5471 5376 5291 5212 5207 5193 5194 5156 5133 5202 5328 5318 5379 5380 5324 5275 5243 5234 5235 5208 5325 5239 5168 5149 5105 5127 5163 5267 5381 5451 5592 5549 5450 5548 5675 5617 5721 5720 5889 5830 5760 5745 5674 5547 5539 5473 5426 5420 5378 5309 5302 5377 5472 5556 5587 5658 5695 5613 5634 5562 5633 5601 5632 5644 5694 5684 5712 5673 5685 5758 5744 5795 5846 5967 5983 6078 6165 6151 6163 6108 6102 6036 5952 5892 5893 5864 5847 5861 5911 6004 6051 6092 6121 6167 6183 6237 6284 6297 6283 6356 6438 6364 6311 6255 6236 6182 6194 6263 6327 6420 6465 6476 6514 6606 6650 6592 6670 6679 6662 6665 6568 6515 6499 6505 6516 6408 6400 6375 6342 6343 6370 6371 6301 6202 6214 6093 6152 6209 6294 6348 6383 6365 6401 6477 6551 6607 6643 6680 6717 6761 6799 6807 6810 6847 6865 6879 6919 6947 6970 6909 6910 6857 6777 6694 6681 6651 6707 6723 6644 6608 6609 6610 6567 6556 6517 6466 6366 6328 6285 6329 6330 6409 6372 6421 6491 6518 6577 6611 6584 6612 6652 6682 6802 6869 6825 6814 6858 6911 7010 7007 7011 6973 6976 6933 6925 6826 6815 6899 6872 6796 6775 6762 6745 6712 6683 6684 6698 6685 6686 6763 6827 6880 6907 6965 7021 7017 7013 6993 7000 6997 6982 6981 6941 6938 6983 6942 6912 6904 6877 6891 6913 6937 6914 6956 7030 7044 7053 7055 7070 7080 7078 7074 7072 7071 7061 7060 7059 7054 7051 7048 7049 7042 7038 7034 7028 7033 7022 7016 7012 7023 7014 6999 6988 6975 6979 6990 6991 6984 6944 6926 6889 6923 6959 6980 6968 6974 6989 6986 6949 6967 6966 6946 6963 6932 6935 6922 6888 6864 6848 6846 6782 6772 6729 6709 6735 6748 6808 6905 6883 6852 6828 6806 6800 6747 6623 6645 6646 6574 6367 6351 6289 6130 6256 6219 6179 6185 6247 6240 6168 6095 6157 6156 6155 6129 6008 5934 5912 5817 5723 5687 5688 5749 5851 5826 5852 5959 5860 5676 5483 5475 5490 5474 5443 5410 5505 5504 5503 5589 5580 5638 5622 5610 5593 5570 5493 5393 5355 5304 5282 5292 5180 5247 5303 5244 5134 5150 5128 5221 5229 5353 5406 5411 5354 5387 5389 5384 5409 5540 5557 5559 5596 5624 5569 5623 5637 5696 5832 5958 6037 6106 6054 6019 5994 6015 6066 6086 6105 6154 6195 6243 6224 6295 6298 6277 6373 6439 6522 6533 6654 6632 6624 6617 6587 6562 6687 6718 6656 6579 6523 6471 6336 6320 6309 6271 6303 6337 6349 6350 6433 6472 6485 6424 6495 6552 6560 6622 6688 6714 6713 6798 6844 6881 6873 6840 6870 6811 6816 6765 6876 6945 6924 6920 6908 6915 6906 6900 6886 6884 6875 6836 6804 6737 6655 6593 6492 6455 6403 6332 6302 6276 6203 6122 6125 6104 6184 6143 6113 6094 5996 5931 5898 5748 5686 5714 5713 5747 5722 5702 5615 5528 5560 5520 5403 5405 5388 5358 5408 5348 5337 5270 5251 5147 5102 5090 5053 5020 4998 5054 5055 5035 4992 4865 4915 4862 4895 5000 5036 5030 4960 4925 4849 4677 4673 4617 4565 4582 4549 4497 4466 4401 4292 4289 4249 4167 4156 4280 4372 4366 4376 4308 4252 4180 4173 4186 4357 4506 4546 4642 4594 4568 4537 4524 4550 4667 4702 4772 4697 4738 4845 4840 4855 4901 4934 4916 4961 4986 4985 4984 5129 5135 5188 5305 5310 5323 5390 5399 5421 5293 5294 5295 5296 5385 5331 5230 5222 5195 5181 5157 5106 5118 5056 5017 4953 4836 5001 5011 5002 5091 5092 5064 5136 5182 5329 5343 5306 5153 5196 5245 5400 5452 5581 5677 5645 5697 5818 5821 5853 5819 5905 5990 6027 6020 6055 6158 6159 6196 5937 5854 5882 5805 5773 5779 5750 5664 5689 5705 5738 5797 5890 5945 5999 5935 5987 6028 6056 6096 6123 6859 6855 6766 6671 6588 6542 6434 6376 6425 6241 6272 5752 5514 5506 6057 5962 5908 5856 5879 5942 5932 5936 5895 5894 5855 5858 5866 5822 5784 5785 5778 5751 5656 5590 5438 5272 5345 5271 5093 5057 5070 4878 5012 5317 5386 5432 5564 5571 5551 5646 5619 5529 5513 5453 5401 5344 5283 5246 5158 5037 5003 4889 4792 4743 4547 4607 4627 4604 4517 4337 4329 4349 4336 4328 4201 4188 4199 4178 4175 4189 4304 4284 4320 4335 4431 4534 4538 4420 4460 4397 4358 4428 4498 4518 4530 4821 4698 4676 4422 4381 4305 4290 4217 4218 4179 4219 3951 3280 2956 2957 2958 2908 2907 2846 2845 2764 2763 2844 2798 2819 2793 2788 2853 2818 2801 2791 2790 2774 2748 2745 2735 2762 2805 2807 2858 2843 2852 2867 2869 2885 2922 3106 3479 3518 3594 3618 3650 3651 3722 3736 3789 3796 3790 3765 3791 3837 3840 3874 3838 3851 3875 3924 3936 3943 3906 3925 3978 3956 3977 3995 4090 4021 4044 3976 3975 3918 3873 3872 3974 4041 4033 3984 3973 3898 3788 3823 3836 3859 3861 3871 4013 4025 4162 4080 4183 4187 4097 3957 3989 3972 3983 4048 4004 3971 3922 3917 3822 3772 3721 3626 3572 3557 3489 3476 3431 3411 3382 3392 3355 3462 3477 3499 3478 3504 3517 3533 3666 3586 3616 3696 3799 3870 3904 3814 3756 3703 3610 3649 3628 3648 3676 3589 3558 3524 3559 3522 3560 3590 3578 3526 3457 3459 3437 3416 3487 3428 3451 3429 3394 3423 3393 3329 3317 3337 3296 3292 3255 3247 3189 3159 3183 3218 3246 3206 3191 3201 3253 3260 3302 3321 3320 3371 3316 3266 3315 3327 3328 3298 3293 3263 3251 3245 3217 3166 3188 3226 3233 3259 3297 3314 3341 3402 3422 3474 3455 3481 3516 3545 3607 3562 3556 3537 3498 3486 3401 3397 3475 3497 3495 3482 3430 3444 3509 3510 3525 3563 3588 3587 3673 3608 3665 3664 3647 3546 3571 3671 3750 3795 3882 3893 3847 3768 3754 3761 3894 4035 4028 4071 4008 3970 3990 3981 4011 4037 4031 3947 3988 4007 4019 4074 4073 4084 4106 4125 4196 4223 4253 4271 4347 4363 4400 4288 4270 4266 4307 4368 4345 4421 4516 4536 4606 4665 4760 4742 4741 4751 4658 4690 4632 4543 4465 4354 4435 4472 4505 4406 4444 4552 4630 4624 4701 4748 4799 4847 4877 4910 4819 4820 4671 4704 4726 4737 4791 4848 4921 4982 4983 5089 4993 5022 5019 5046 5205 5269 5356 5342 5316 5320 5341 5431 5457 5498 5527 5531 5553 5636 5703 5839 5802 5746 5815 5732 5796 5810 5850 5831 5941 6014 5957 5956 6053 6070 6140 6257 6210 6239 6252 6334 6357 6442 6468 6545 6525 6521 6497 6561 6586 6571 6616 6635 6702 6746 6797 6803 6778 6756 6764 6701 6653 6638 6570 6615 6630 6614 6585 6569 6506 6432 6423 6402 6333 6422 6447 6470 6496 6520 6578 6613 6519 6532 6393 6392 6331 6273 6238 6153 6126 5954 5874 5953 6052 6180 6190 6007 5848 5849 5787 5681 5621 5651 5602 5550 5478 5445 5502 5598 5538 5635 5736 5862 5917 5955 6018 5918 5827 5753 5679 5574 5588 5567 5454 5326 5307 5191 5268 5319 5383 5382 5336 5198 5139 5179 5228 5088 5033 5087 5018 4991 4904 4900 4966 5016 4933 4868 4834 4790 4761 4725 4670 4636 4647 4558 4508 4496 4453 4414 4407 4344 4285 4360 4513 4581 4656 4684 4637 4724 4746 4767 4833 4883 4867 4789 4723 4722 4683 4655 4638 4588 4563 4447 4495 4520 4375 4440 4427 4411 4303 4231 4133 4108 4134 4098 4135 4172 4182 4184 4317 4235 4216 4159 4273 4195 4166 4226 4243 4161 4142 4238 4185 4109 4065 4016 3912 3869 3849 3887 3899 3921 3892 3862 3819 3833 3800 3794 3714 3720 3715 3707 3661 3663 3682 3719 3740 3834 3881 3886 3950 4036 4067 4045 3991 3911 3897 3803 3787 3689 3684 3652 3630 3757 3852 3941 4078 4005 4070 4061 4060 4064 3997 3969 3876 3885 3835 3868 3802 3786 3744 3759 3807 3858 3907 3854 3879 3880 3808 3747 3718 3702 3729 3683 3675 3611 3646 3632 3593 3543 3523 3503 3485 3554 3564 3592 3544 3553 3584 3552 3508 3507 3488 3385 3357 3271 3268 3232 3192 3221 3204 3180 3215 3275 3279 3352 3359 3312 3313 3390 3409 3449 3484 3438 3445 3496 3413 3443 3442 3473 3441 3419 3345 3311 3300 3287 3310 3254 3241 3208 3242 3243 3168 3140 3118 3102 3070 3071 3099 3125 3165 3179 3162 3104 3084 3055 3008 3016 3003 2964 2951 2968 2950 2927 2901 2876 2917 2930 2972 2980 2985 2971 2996 3043 3067 3117 3093 3116 3115 3147 3163 3139 3213 3231 3239 3265 3309 3308 3336 3370 3377 3334 3240 3290 3351 3388 3378 3389 3414 3515 3549 3601 3623 3655 3550 3551 3542 3617 3615 3692 3693 3645 3541 3519 3539 3530 3583 3672 3624 3656 3631 3694 3709 3785 3739 3737 3766 3830 3762 3784 3817 3783 3742 3867 3878 3938 3999 3996 3930 3968 3987 4015 4024 4059 4040 4092 4094 4168 4241 4315 4203 4248 4177 4131 4132 4103 4100 4047 4043 4091 4058 4083 4147 4215 4291 4302 4396 4356 4468 4494 4522 4541 4539 4580 4615 4626 4653 4654 4757 4806 4756 4774 4818 4875 4863 4876 4929 4981 5004 4980 5065 5071 5006 5086 5047 5021 4946 4914 4940 5063 5085 5084 5083 4931 4885 4788 4759 4646 4720 4803 4815 4747 4850 4721 4700 4610 4589 4525 4451 4436 4393 4326 4394 4434 4493 4395 4353 4343 4301 4229 4225 4214 4146 4140 4086 4077 4104 4120 4154 4190 4213 4256 4314 4283 4272 4212 4181 4115 4116 4057 4020 4027 3998 3916 3915 3866 3942 3937 3939 3865 3821 3818 3782 3724 3641 3660 3642 3609 3633 3728 3713 3764 3770 3831 3843 3910 3905 3743 3760 3771 3844 3903 3813 3705 3712 3644 3662 3643 3472 3471 3528 3600 3582 3540 3470 3447 3408 3387 3286 3238 3223 3178 3230 3237 3295 3307 3306 3258 3305 3346 3461 3469 3426 3433 3468 3521 3520 3597 3640 3659 3625 3725 3777 3733 3681 3622 3657 3738 3797 3812 3816 3781 3776 3780 3815 3891 3967 3901 3994 4054 4053 4110 4151 4202 4306 4417 4533 4477 4425 4415 4392 4300 4263 4316 4192 4171 4265 4348 4211 4145 4113 4056 4055 4069 3909 3986 4002 4082 4130 4122 4193 4362 4418 4475 4571 4562 4645 4736 4796 4825 4856 4894 4888 4912 4979 5082 5040 5081 5215 5290 5219 5073 4957 4827 4775 4711 4662 4675 4464 4443 4619 4614 4620 4567 4467 4419 4294 4247 4245 4164 4118 4107 4138 4105 4096 4085 4158 4153 4236 4244 4287 4331 4377 4374 4346 4333 4455 4410 4448 4430 4476 4548 4570 4584 4590 4554 4612 4597 4660 4681 4694 4611 4600 4527 4523 4503 4391 4367 4371 4323 4282 4334 4413 4404 4332 4324 4310 4259 4242 4246 4279 4141 4157 4038 4023 4012 3954 3945 3890 3841 3839 3864 3798 3723 3686 3575 3452 3381 3338 3270 3281 3228 3197 3150 3149 3085 2981 3014 3034 3023 3087 3142 3200 3101 3131 3198 3272 3322 3294 3252 3248 3299 3446 3512 3598 3634 3658 3637 3536 3529 3384 3424 3367 3360 3375 3340 3353 3502 3604 3535 3619 3691 3687 3706 3688 3629 3752 3779 3820 3992 3929 3846 3829 3920 4001 3993 3949 3927 3769 3753 3755 3763 3775 3853 3919 3914 3940 3908 3933 3826 3758 3704 3680 3576 3565 3483 3514 3638 3635 3717 3726 3745 3727 3679 3639 3573 3596 3548 3465 3453 3376 3283 3234 3212 3278 3332 3331 3379 3358 3339 3285 3257 3207 3196 3171 3169 3096 3027 2977 2874 2914 2888 2889 2831 2803 2817 2779 2722 2688 2670 2613 2560 2521 2518 2474 2466 2441 2438 2459 2435 2443 2455 2472 2505 2551 2590 2549 2591 2630 2625 2631 2641 2689 2729 2733 2708 2724 2690 2726 2742 2752 2691 2661 2594 2597 2607 2634 2660 2672 2692 2656 2693 2753 2799 2893 2932 3001 3046 3000 2940 2892 2891 2890 2948 3015 2989 2988 2999 3050 3086 3111 3158 3174 3222 3138 3103 3045 3108 3193 3229 3235 3261 3304 3365 3363 3400 3412 3466 3440 3454 3467 3386 3361 3325 3236 3190 3167 3175 3112 3113 3176 3177 3146 3114 3088 3053 3052 3078 3051 2995 2983 2936 2895 2879 2859 2894 2856 2694 2663 2598 2561 2517 2533 2513 2485 2463 2510 2506 2520 2511 2494 2484 2479 2462 2461 2436 2387 2367 2359 2332 2333 2345 2362 2397 2432 2399 2368 2384 2338 2329 2321 2295 2308 2305 2289 2261 2247 2220 2223 2212 2197 2182 2177 2164 2162 2161 2186 2185 2196 2218 2231 2245 2266 2285 2262 2232 2219 2211 2199 2183 2173 2158 2147 2168 2193 2194 2221 2207 2187 2208 2209 2235 2258 2259 2288 2290 2293 2306 2319 2351 2354 2297 2287 2257 2243 2249 2256 2255 2268 2286 2307 2316 2349 2325 2317 2298 2318 2350 2360 2374 2383 2385 2409 2419 2418 2444 2456 2465 2489 2488 2514 2487 2499 2535 2580 2581 2606 2635 2655 2682 2687 2676 2657 2699 2747 2718 2673 2650 2579 2552 2534 2467 2448 2416 2437 2425 2417 2403 2373 2348 2347 2346 2356 2395 2408 2394 2402 2439 2453 2434 2457 2486 2475 2497 2550 2567 2604 2642 2628 2648 2620 2605 2621 2640 2695 2696 2681 2697 2666 2698 2754 2746 2781 2782 2787 2792 2860 2832 2826 2896 2897 2929 2969 3002 3025 2990 3037 3076 3090 3054 3031 2987 2949 2898 2899 2913 2900 2886 2861 2833 2822 2834 2835 2794 2744 2755 2749 2756 2757 2776 2780 2836 2870 2902 2903 2952 2944 2904 2918 2953 2984 2973 3004 3032 3056 3079 3080 3105 3098 3074 3057 3005 2993 2954 2941 2884 2881 2838 2769 2820 2837 2795 2796 2758 2739 2730 2717 2701 2713 2700 2636 2608 2570 2562 2503 2490 2519 2536 2553 2582 2588 2646 2658 2637 2659 2674 2714 2725 2679 2686 2702 2651 2638 2612 2583 2589 2563 2504 2538 2537 2464 2460 2450 2469 2449 2433 2420 2400 2375 2376 2365 2377 2426 2421 2427 2388 2378 2352 2300 2296 2309 2330 2355 2331 2324 2328 2335 2364 2379 2382 2422 2405 2430 2454 2473 2496 2507 2500 2458 2440 2428 2389 2391 2363 2390 2404 2431 2495 2480 2478 2522 2564 2557 2617 2668 2680 2712 2750 2857 2905 2882 2906 2955 2963 2975 3019 3040 3026 2994 3038 3077 3091 3100 3120 3148 3145 3119 3153 3181 3195 3182 3185 3141 3094 3129 3161 3172 3170 3144 3123 3107 3186 3262 3224 3291 3289 3282 3210 3199 3219 3244 3250 3225 3249 3288 3301 3349 3391 3354 3319 3326 3395 3417 3403 3399 3396 3415 3434 3421 3404 3435 3456 3555 3595 3606 3605 3603 3602 3591 3585 3577 3568 3491 3458 3425 3436 3506 3364 3366 3323 3330 3333 3347 3350 3273 3211 3160 3155 3157 3132 3121 3127 3081 3058 3059 3047 3092 3033 3011 3010 3017 3009 3021 2978 2933 2937 2965 2966 3020 2934 2912 2875 2851 2863 2720 2706 2685 2675 2643 2653 2618 2652 2627 2599 2571 2565 2554 2539 2508 2540 2568 2574 2573 2610 2611 2662 2596 2559 2556 2547 2541 2512 2502 2476 2491 2470 2492 2468 2451 2477 2498 2493 2515 2546 2555 2542 2558 2593 2609 2615 2575 2595 2572 2584 2600 2629 2667 2622 2592 2585 2566 2543 2569 2624 2665 2711 2731 2810 2887 2943 2878 2840 2841 2768 2760 2732 2709 2727 2705 2683 2738 2770 2766 2767 2778 2783 2797 2813 2839 2864 2802 2784 2723 2716 2759 2777 2821 2880 2938 2931 2961 2942 2945 2928 2974 3022 2992 3072 3082 3060 3028 3013 3035 3069 3068 3124 3097 3203 3187 3130 3126 3064 3063 3062 3073 3066 3061 3044 3041 3006 3012 2877 2825 2866 2865 2815 2785 2786 2751 2734 2703 2671 2654 2644 2603 2623 2707 2736 2814 2842 2868 2915 2871 2789 2850 2773 2771 2804 2816 2811 2761 2808 2800 2809 2740 2664 2602 2516 2601 2619 2548 2501 2210 2060 2022 2006 1826 1944 1976 2034 2087 2053 2051 1993 1997 2005 2020 2021 2032 2031 2030 2037 2043 2056 2073 2083 2094 2099 2075 2050 2045 2048 2039 2058 2074 2097 2117 2114 2124 2170 2169 2155 2150 2136 2130 2139 2135 2137 2113 2108 2105 2093 2082 2072 2081 2076 2096 2127 2143 2110 2107 2104 2109 2145 2128 2116 2103 2102 2095 2080 2079 2077 2069 2057 2044 2041 2040 2036 2029 2024 2019 2003 2004 1995 1996 1987 1986 1985 1989 1994 2007 2001 2002 2009 2014 2028 2038 2052 2055 2063 2067 2078 2086 2112 2119 2134 2133 2122 2092 2125 2132 2146 2156 2163 2181 2201 2213 2240 2246 2271 2263 2276 2274 2299 2303 2270 2269 2267 2248 2237 2241 2230 2222 2216 2238 2242 2264 2273 2292 2302 2344 2357 2358 2407 2429 2401 2393 2406 2415 2386 2361 2334 2323 2315 2294 2272 2236 2234 2215 2200 2206 2195 2180 2190 2172 2157 2153 2144 2121 2089 2100 2101 2091 2085 2084 2066 2064 2054 2061 2065 2088 2090 2120 2131 2138 2106 2118 2111 2126 2129 2148 2152 2140 2141 2142 2154 2178 2176 2179 2191 2174 2171 2175 2160 2149 2159 2167 2192 2214 2198 2217 2239 2260 2304 2314 2322 2337 2366 2396 2424 2392 2398 2372 2371 2343 2336 2320 2326 2301 2291 2265 2277 2284 2275 2244 2229 2205 2204 2203 2202 2166 2165 2184 2228 2227 2226 2252 2253 2281 2341 2313 2282 2254 2283 2342 2413 2414 2447 2442 2471 2509 2532 2531 2578 2577 2614 2616 2626 2669 2677 2719 2728 2775 2830 2883 2924 2960 2962 2967 2947 3042 3024 3018 3049 3194 3202 3156 3154 3136 3143 3110 3135 3134 3083 3048 2997 2986 2982 2935 2923 2916 2920 2925 2939 2921 2872 2827 2741 2710 2824 2828 2737 2829 2772 2678 2633 2645 2632 2530 2529 2576 2528 2483 2446 2412 2411 2370 2340 2312 2311 2280 2251 2225 2250 2279 2339 2369 2410 2445 2482 2527 2526 2525 2647 2649 2721 2812 2854 2743 2715 2855 2919 2806 2926 2979 3030 3075 3122 3137 3216 3277 3284 3269 3267 3356 3439 3418 3344 3494 3534 3579 3627 3674 3734 3801 3774 3735 3678 3613 3614 3581 3532 3493 3427 3460 3567 3570 3677 3654 3701 3749 3793 3804 3811 3824 3913 3946 3966 4046 4017 4000 3952 3896 3932 3857 3746 3697 3690 3621 3669 3569 3547 3612 3685 3668 3670 3730 3767 3806 3828 3860 3845 3948 3931 3926 4018 4081 4093 4095 4075 4139 4121 4087 4117 4176 4224 4230 4237 4232 4210 4239 4262 4318 4378 4399 4450 4452 4515 4480 4429 4408 4370 4251 4209 4174 4198 4170 4144 4152 4155 4102 4079 4076 4030 4010 4026 4009 3965 3980 3935 3928 3883 3850 3842 3825 3810 3711 3732 3700 3667 3599 3574 3561 3501 3372 3348 3362 3343 3448 3432 3490 3511 3538 3505 3450 3398 3383 3276 3220 3152 3089 3039 2970 2862 2823 2873 2976 3029 3151 3036 3209 3214 3128 3184 3380 3410 3420 3531 3698 3773 3827 3923 3964 4014 3944 4063 4089 4149 4112 4197 4208 4165 4111 4032 4022 4006 3955 3900 3856 3832 3731 3699 3695 3741 3748 3792 3889 3902 3848 3877 3884 3888 3953 4029 4099 4274 4389 4489 4471 4463 4258 4254 4361 4482 4664 4731 4686 4712 4578 4504 4462 4388 4373 4387 4233 4227 4101 4124 4163 4257 4439 4488 4540 4648 4687 4739 4816 4785 4838 4932 5031 4909 4870 4853 4971 5005 4972 5049 5096 5024 4995 4943 4973 4891 4843 4844 4798 4688 4629 4566 4490 4351 4379 4293 4327 4267 4114 4066 4068 3985 3934 3982 4034 4072 4088 4160 4277 4432 4454 4531 4579 4478 4438 4380 4390 4359 4281 4322 4311 4312 4268 4269 4341 4442 4426 4424 4461 4510 4532 4556 4640 4706 4749 4710 4707 4663 4560 4553 4544 4559 4586 4542 4511 4481 4446 4479 4457 4458 4433 4403 4364 4342 4299 4278 4309 4234 4200 4194 4129 4228 4275 4313 4325 4365 4416 4402 4355 4352 4338 4412 4492 4502 4500 4603 4608 4659 4680 4750 4727 4735 4703 4669 4595 4561 4491 4512 4526 4501 4521 4514 4598 4623 4625 4651 4691 4768 4831 4839 4809 4814 4841 4826 4854 4779 4732 4693 4555 4557 4599 4593 4641 4652 4674 4699 4754 4770 4773 4811 4823 4861 4945 5039 5029 5050 5094 5123 5144 5203 5210 5227 5287 5297 5416 5265 5264 5190 5169 5125 5164 5159 5143 5120 5114 5066 5041 5008 4917 4965 4964 4942 5007 4919 4968 4939 4947 4907 4906 4935 4918 4997 5044 5028 5111 5095 5146 5301 5327 5253 5250 5238 5214 5321 5402 5429 5407 5481 5467 5441 5447 5423 5415 5351 5285 5274 5177 5276 5263 5240 5226 5192 5167 5152 5104 5058 4999 4926 4924 5025 5027 4988 4959 4949 4890 4813 4793 4824 4851 4795 4808 4780 4776 4812 4858 4864 4860 4880 4944 4967 5051 5122 5115 5137 5176 5231 5217 5311 5300 5340 5414 5439 5440 5476 5512 5552 5530 5522 5509 5521 5579 5641 5662 5710 5824 5867 5900 5944 6059 6063 6064 6006 6103 6069 5982 5973 5913 5910 5978 5997 6100 6177 6215 6186 6115 6021 5971 5963 5929 5915 5869 5837 5825 5759 5668 5834 5870 5803 5755 5724 5704 5618 5595 5558 5492 5565 5578 5631 5741 5804 5630 5594 5532 5487 5466 5372 5373 5248 5254 5079 4975 4963 4902 4872 4871 4817 4800 4753 4718 4682 4644 4605 4592 4622 4678 4717 4822 4794 4786 4941 4974 4950 5015 5160 5299 5371 5433 5518 5572 5767 5881 5981 6035 6160 6073 6041 5961 5972 5880 5800 5733 5649 5740 5691 5629 5584 5511 5465 5480 5369 5370 5262 5209 5119 5151 5197 5223 5368 5464 5489 5545 5573 5575 5628 5711 5737 5739 5798 5768 5970 5977 5928 5949 5998 5909 5820 5823 5754 5657 5627 5652 5612 5543 5491 5544 5463 5367 5314 5259 5278 5260 5273 5261 5175 5142 5034 5078 5110 5130 5077 5174 5206 5258 5330 5366 5315 5173 5184 5148 5172 5171 5076 5075 5166 5170 5224 5284 5298 5233 5165 4989 4764 4650 4602 4616 4577 4569 4509 4340 4474 4668 4576 4456 4386 4261 4119 4039 3959 3809 3751 3708 3303 3264 3133 3095 3164 2991 2998 2946 3173 3227 3205 3405 3373 3368 3324 3566 3500 3513 3406 3342 3274 3369 3620 3374 3492 3580 3710 3636 3407 3464 3527 3335 3109 2684 2524 2481 2327 2224 2310 2278 1999 1389 1736 1712 1737 1697 1713 1698 1679 1680 1661 1662 1663 1682 1681 1699 1714 1715 1716 1717 1738 1756 1739 1718 1700 1683 1701 1720 1719 1740 1741 1757 1770 1782 1783 1771 1772 1784 1773 1742 1704 1703 1685 1702 1684 1666 1667 1649 1618 1603 1589 1572 1588 1616 1617 1632 1633 1648 1665 1664 1647 1631 1615 1587 1602 1601 1614 1613 1630 1629 1585 1586 1569 1556 1570 1571 1557 1558 1544 1543 1530 1531 1517 1501 1492 1491 1500 1490 1474 1461 1475 1476 1477 1462 1452 1453 1478 1479 1493 1502 1518 1532 1545 1559 1573 1560 1561 1562 1574 1605 1593 1592 1591 1590 1604 1619 1634 1650 1651 1668 1669 1652 1635 1636 1620 1606 1595 1594 1575 1563 1546 1533 1519 1508 1507 1506 1505 1504 1503 1494 1495 1463 1464 1480 1481 1465 1466 1467 1454 1446 1455 1456 1449 1445 1438 1433 1443 1444 1450 1457 1460 1471 1451 1472 1485 1497 1487 1483 1470 1469 1468 1488 1499 1513 1523 1537 1553 1536 1512 1510 1496 1482 1509 1520 1521 1534 1535 1547 1565 1564 1577 1576 1596 1621 1637 1653 1670 1687 1686 1706 1705 1721 1743 1744 1745 1746 1722 1707 1688 1671 1689 1723 1747 1748 1749 1776 1775 1774 1785 1786 1793 1803 1804 1805 1806 1811 1807 1812 1808 1794 1795 1787 1788 1766 1760 1759 1758 1724 1725 1690 1672 1654 1638 1639 1622 1640 1644 1673 1692 1694 1691 1708 1726 1732 1750 1761 1735 1755 1777 1781 1791 1792 1796 1809 1813 1822 1821 1820 1819 1827 1828 1854 1887 1919 1932 1933 1925 1926 1934 1941 1956 1951 1954 1940 1947 1948 1959 1969 1970 1968 1978 1991 1992 2012 2015 2017 2010 2008 2011 2013 2035 2059 2062 2068 2070 2071 2049 2042 2027 2018 2025 2026 2033 2016 2000 1990 1979 1972 1971 1966 1958 1960 1967 1961 1973 1981 1983 1982 1984 1974 1980 1975 1962 1950 1965 1957 1953 1955 1952 1949 1942 1943 1936 1935 1927 1920 1915 1914 1908 1901 1902 1898 1892 1896 1899 1903 1909 1910 1916 1921 1928 1937 1922 1917 1911 1918 1912 1905 1904 1897 1895 1889 1891 1894 1893 1890 1888 1886 1885 1879 1875 1876 1880 1882 1883 1884 1881 1877 1878 1873 1872 1870 1865 1861 1858 1853 1852 1857 1856 1860 1864 1869 1871 1868 1867 1866 1863 1859 1855 1849 1847 1842 1833 1834 1837 1843 1850 1851 1848 1844 1845 1846 1839 1838 1836 1832 1835 1831 1830 1829 1824 1823 1815 1814 1797 1800 1802 1810 1816 1817 1825 1818 1801 1798 1790 1780 1769 1754 1696 1676 1675 1659 1628 1645 1658 1674 1678 1677 1693 1711 1709 1710 1730 1731 1734 1753 1763 1765 1778 1789 1779 1768 1767 1762 1752 1751 1729 1733 1728 1727 1695 1657 1656 1643 1641 1626 1625 1611 1608 1607 1600 1580 1567 1555 1566 1568 1583 1598 1597 1612 1624 1627 1623 1646 1655 1642 1610 1609 1584 1581 1579 1582 1578 1554 1548 1526 1538 1540 1549 1550 1551 1552 1527 1539 1525 1522 1514 1524 1511 1498 1484 1486 1473 1459 1458 1448 1447 1441 1442 1435 1423 1431 1440 1434 1439 1430 1415 1432 1421 1412 1414 1411 1402 1401 1403 1410 1420 1424 1429 1437 1428 1418 1419 1409 1400 1395 1384 1385 1396 1397 1386 1387 1379 1378 1370 1369 1364 1357 1356 1351 1350 1354 1355 1363 1368 1367 1376 1377 1383 1399 1408 1407 1427 1426 1436 1417 1416 1404 1405 1406 1394 1382 1381 1393 1392 1398 1391 1390 1380 1371 1372 1373 1374 1375 1366 1362 1361 1353 1348 1349 1344 1341 1340 1343 1339 1338 1337 1346 1347 1360 1365 1359 1352 1345 1342 1336 1335 1329 1325 1320 1316 1312 1306 1317 1313 1307 1308 1314 1318 1321 1330 1331 1332 1326 1322 1327 1333 1334 1328 1324 1319 1323 1315 1309 1310 1301 1296 1300 1295 1289 1279 1272 1273 1264 1257 1256 1251 1246 1243 1237 1229 1230 1218 1223 1209 1219 1216 1208 1210 1222 1235 1236 1245 1255 1250 1263 1271 1278 1287 1288 1294 1299 1298 1293 1291 1286 1281 1276 1270 1261 1258 1252 1253 1259 1267 1266 1268 1275 1277 1282 1290 1303 1305 1311 1304 1302 1297 1292 1285 1284 1280 1274 1269 1265 1262 1260 1254 1247 1249 1248 1241 1240 1239 1232 1231 1233 1242 1244 1238 1234 1228 1225 1226 1214 1215 1202 1203 1193 1192 1199 1189 1194 1200 1204 1205 1206 1191 1186 1190 1178 1173 1177 1184 1183 1185 1182 1188 1198 1181 1175 1187 1197 1196 1201 1213 1221 1227 1220 1211 1212 1195 1180 1174 1179 1169 1165 1164 1149 1156 1166 1167 1157 1158 1150 1141 1142 1143 1145 1151 1152 1159 1168 1170 1176 1171 1172 1161 1147 1146 1144 1140 1138 1139 1137 1125 1124 1127 1123 1134 1136 1133 1132 1131 1135 1130 1128 1129 1122 1118 1117 1121 1114 1115 1109 1108 1107 1102 1101 1098 1080 1082 1089 1092 1103 1104 1100 1094 1090 1088 1083 1078 1081 1077 1071 1069 1065 1066 1072 1084 1095 1110 1111 1116 1119 1120 1112 1106 1105 1099 1096 1097 1093 1091 1086 1085 1079 1076 1075 1067 1074 1073 1063 1058 1054 1047 1048 1042 1035 1036 1049 1055 1059 1060 1061 1064 1068 1062 1057 1056 1052 1051 1043 1050 1046 1037 1038 1032 1026 1027 1018 1019 1028 1033 1039 1044 1045 1041 1040 1034 1029 1030 1021 1020 1012 1006 1005 1011 1010 1009 1016 1017 1025 1024 1023 1031 1022 1013 1003 1007 1014 1015 1008 1004 999 993 991 988 984 985 979 980 981 982 986 989 994 995 996 1000 1001 1002 997 992 990 987 983 978 975 971 966 974 973 970 965 969 968 972 977 976 967 964 962 961 956 944 950 951 957 952 945 946 947 940 953 958 959 963 960 955 949 954 948 941 942 937 931 923 930 929 922 919 921 928 927 936 935 934 926 920 925 933 939 938 932 924 918 914 909 915 910 903 902 897 891 887 883 879 880 888 892 893 898 904 906 907 912 911 916 917 913 908 905 899 894 895 896 900 901 890 886 878 877 882 885 889 884 881 876 869 870 871 854 845 855 863 864 865 866 872 873 867 868 874 875 858 850 851 859 860 861 852 853 844 839 843 838 842 829 824 825 814 813 812 823 828 837 849 848 841 847 846 857 856 836 821 822 803 804 805 795 796 797 798 799 806 815 826 827 830 831 832 833 840 834 835 820 811 802 794 790 789 793 788 787 791 792 801 810 818 817 809 808 816 807 800 786 780 775 767 779 781 785 782 776 777 783 784 778 772 769 770 771 760 761 762 764 773 774 862 1224 1160 1207 1126 1113 1283 1358 1425 1599 1764 1840 1874 1900 1906 1929 1930 1931 1923 1924 1939 1938 1945 1964 1963 1977 1998 2023 2047 2046 1988 2098 2115 2123 2151 2189 2188 2233 2353 2380 2381 2423 2452 2545 2544 2587 2586 2639 2704 2765 2849 2848 2847 2909 2910 2911 2959 3007 3065 3318 3480 3653 3979 4136 4137 4220 4499 4221 4222 4398 4583 4657 4892 5013 4896 4969 5062 5103 5132 5183 5140 5141 5586 5639 5661 5706 5780 6166 6242 6524 6111 5968 4062 3256 2523 1913 1907 1862 1946 1799 1422 1413 1388 1217 1087 1070 998 943 819 744 650 643 395 174 100 44 45 173 165 114 123 116 109 106 98 99 86 85 91 95 97 94 90 87 84 81 80 77 74 73 70 68 66 64 63 60 57 53 52 49 41 42 40 39 38 37 35 36 34 33 32 31 30 28 29 27 25 26 24 23 21 22 20 19 18 16 17 8 12 6 10 4 2 1 3 5 7 9 11 13 15 14 43 46 47 48 50 51 54 56 55 58 59 62 61 65 67 69 71 72 75 76 78 79 83 82 88 92 89 93 96 103 102 108 104 101 105 113 115 117 119 120 122 126 125 124 128 129 130 132 131 134 135 136 137 139 138 140 141 143 142 147 150 149 146 145 148 155 158 156 151 152 153 154 157 159 160 161 162 164 163 166 167 169 168 172 171 176 180 177 179 178 181 182 184 183 186 185 190 191 193 198 192 196 197 199 200 202 204 203 206 210 215 211 209 207 216 218 220 223 222 225 226 230 229 236 233 235 242 246 247 249 250 253 261 254 251 256 257 258 262 259 263 260 265 270 264 269 268 274 273 275 277 276 279 280 278 281 282 283 284 285 287 286 289 291 294 298 295 292 290 288 293 296 299 310 314 319 313 309 304 308 303 302 307 301 297 300 305 306 311 312 315 316 317 318 320 323 328 337 338 343 344 329 324 325 326 330 345 367 386 366 355 354 353 384 385 393 394 410 409 417 429 408 407 416 428 441 427 440 452 451 460 469 450 426 425 415 449 448 439 438 424 406 405 383 392 404 403 422 423 437 447 436 421 420 391 382 402 414 401 390 379 363 364 380 381 365 352 351 342 336 350 362 341 349 361 378 360 377 359 348 335 334 333 322 321 327 331 332 347 376 375 358 374 373 400 435 446 468 467 466 459 458 465 479 485 492 499 484 478 477 476 464 456 457 445 434 419 418 412 396 397 388 398 413 399 389 372 346 340 339 357 371 370 356 369 368 387 411 432 433 444 455 463 454 443 431 430 442 453 462 471 461 470 480 486 494 493 508 514 509 501 502 510 495 487 488 481 482 472 473 474 475 483 490 498 491 505 512 504 497 489 496 503 511 516 520 519 515 518 525 529 528 524 523 527 531 522 517 507 500 506 513 521 526 530 534 541 547 548 542 535 536 543 549 551 553 556 561 560 563 564 565 570 577 582 598 605 604 597 587 588 576 575 569 568 574 581 580 596 595 594 586 579 573 567 562 557 558 555 559 552 546 540 533 532 539 545 550 554 566 572 571 578 583 591 601 602 592 593 584 585 603 607 613 614 628 634 627 620 619 626 618 612 611 625 633 642 649 641 624 617 610 600 599 590 589 606 609 616 622 623 632 640 657 663 662 656 639 638 631 637 648 655 654 653 652 660 661 669 670 671 672 679 678 692 693 711 724 729 728 735 741 740 734 727 726 723 722 717 708 716 715 707 706 714 713 721 725 731 737 738 732 733 739 743 751 763 765 757 750 752 756 755 749 748 754 747 759 768 758 753 746 745 742 736 730 720 712 704 705 699 694 686 687 680 673 674 681 682 688 689 683 675 676 684 690 696 695 700 701 702 709 718 719 710 703 697 698 691 685 677 668 667 666 665 664 658 659 651 644 645 629 635 646 647 636 630 621 615 608 538 537 544 267 255 252 245 244 241 232 221 214 208 213 217 224 219 212 205 201 195 194 189 187 188 175 170 144 133 127 112 111 107 110 118 121 234 240 228 237 231 227 239 248 238 243 266 272 271 766 1053 1148 1163 1162 1155 1154 1153 1841 1489 1516 1529 1542 1528 1515 1541 1660 7075 7100 7076 7065 7066 7101 7146 7124 7125 7126 7045 7083 7102 7067 7084 7077 7068 7057 7029 7046 7047 6950 6951 7008 6952 7009 6953 6819 6878 6820 5840 5841 6225 5781 5875 6072 5394 5279 5360 5361 5256 5074 4782 4783 4204 3960 3778 3961 3962 4049 4126 4127 4128 4205 4295 4050 4296 4483 4649 4484 4572 4573 4485 4574 4705 4713 4714 4777 4970 4781 4709 4715 4634 4564 4487 4535 4575 4486 4260 4206 4052 4051 3963 3716 3463 3855 3895 4003 4148 4169 4382 4383 4350 4297 4207 4298 4369 4441 4601 4528 4445 4384 4330 4250 4286 4385 4264 4150 4191 4143 3958 3805 3863 4042 4123 4255 4321 4437 4423 4276 4405 4470 4596 4769 4830 4758 4618 4628 4545 4635 4639 4507 4529 4631 4643 4763 4778 5048 5199 5108 4994 4922 4852 4804 4762 4797 4899 4962 4930 5362 5280 5216 5237 5112 4948 4898 4837 4835 4784 4716 4765 4810 4893 5339 5257 5515 5507 5678 5640 5698 5762 5842 5833 5899 5933 6060 5991 6002 6045 6039 5925 6067 6118 6172 6226 6197 6079 6058 6034 5914 5728 5363 5458 5499 5459 5460 5413 5347 5364 5249 5365 5435 5461 5462 5486 5497 5542 5577 5626 5667 5568 5541 5625 5647 5716 5715 5807 5876 5788 5843 5984 5924 5939 5947 5948 6024 6132 6137 6169 6145 6112 6099 5969 5975 5960 6031 6005 6016 6128 6030 6032 6075 6046 6068 6082 6134 6144 6199 6208 6290 6227 6207 6213 6220 6274 6286 6361 6322 6415 6469 6509 6416 6406 6394 6338 6296 6287 6345 6378 6448 6459 6504 6557 6600 6706 6473 6363 6281 6280 6228 6248 6211 6200 6250 6258 6321 6369 6411 6379 6437 6426 6435 6417 6500 6541 6547 6636 6305 6291 6443 6559 6543 6546 6507 6498 6478 6418 6384 6352 6353 6395 6444 6412 6479 6488 6429 6368 6318 6288 6268 6266 6253 6201 6120 6139 6171 6223 6081 6029 6107 6043 6022 5976 6011 5943 5872 5986 6074 6097 6141 6206 6191 6229 6261 6221 6230 6304 6317 6399 6374 6440 6319 6306 6275 6259 6300 6314 6216 6192 6187 6124 6076 6038 6023 5995 5985 5979 6109 6164 6278 6299 6265 6204 6161 6246 6212 6231 6262 6316 6380 6355 6397 6452 6396 6510 6598 6629 6648 6582 6564 6580 6572 6659 6689 6674 6773 6813 6850 6863 6866 6841 6842 6821 6792 6755 6758 6730 6673 6666 6628 6596 6563 6503 6427 6431 6410 6323 6354 6362 6377 6430 6474 6536 6461 6480 6539 6553 6575 6620 6658 6633 6696 6720 6693 6704 6719 6867 6769 6767 6753 6703 6695 6692 6754 6786 6791 6834 6812 6780 6768 6832 6838 6853 6874 6894 6893 6921 6927 6896 6934 6936 6948 6971 7001 7005 7006 7015 7018 7024 7085 7036 7025 7026 7037 7039 7035 7031 7020 7004 6987 6985 6978 6957 6962 6977 6960 6972 6961 6943 6930 6928 6931 6917 6897 6892 6916 6887 6918 6901 6779 6781 6732 6725 6710 6749 6724 6757 6822 6845 6793 6743 6770 6733 6716 6668 6667 6649 6627 6602 6601 6573 6501 6462 6511 6583 6621 6534 6483 6490 6512 6550 6538 6589 6566 6502 6456 6390 6445 6436 6457 6481 6508 6529 6565 6603 6664 6675 6726 6699 6727 6738 
