Best cost: 210066
Time: 25598.6
Route:
166 179 147 143 132 192 205 182 186 214 243 260 280 306 323 346 401 379 351 377 410 459 527 580 579 514 491 502 461 423 389 327 320 265 255 238 234 218 230 250 269 332 372 399 436 416 407 385 405 429 387 303 291 312 281 249 215 253 309 274 264 285 308 336 353 368 413 433 465 424 507 531 495 548 511 544 523 554 578 602 638 611 594 663 692 664 642 662 657 606 632 618 601 558 551 543 513 501 460 483 500 536 577 535 497 504 422 441 451 458 402 375 367 364 386 421 395 384 417 403 435 428 445 532 475 566 542 499 471 447 470 503 561 512 533 597 680 645 629 741 758 778 821 851 884 869 842 813 768 800 898 863 838 803 828 874 881 921 941 950 937 872 807 779 735 700 685 651 610 643 660 630 641 684 719 740 792 853 895 891 903 967 982 936 855 836 777 738 816 860 857 812 801 739 704 653 607 609 574 550 572 540 575 596 608 650 682 697 730 764 820 837 856 845 909 907 955 1016 1184 1203 1305 1382 1389 1331 1174 1169 1102 1069 1072 1196 1241 1254 1212 1154 1127 1170 1152 1078 1066 986 949 1044 1070 1086 992 1014 998 972 952 947 932 928 922 1027 1057 1085 1076 1105 1269 1228 1213 1306 1346 1332 1376 1378 1406 1344 1297 1198 1255 1310 1412 1496 1532 1510 1590 1687 1774 1684 1616 1578 1649 1677 1739 1806 1822 1848 1702 1633 1666 1625 1599 1437 1362 1287 1214 1171 1080 1149 1159 1209 1249 1302 1374 1452 1504 1540 1533 1507 1415 1359 1199 1144 1030 1028 948 980 944 875 854 839 818 776 751 720 723 775 756 794 865 905 843 808 783 767 729 698 703 668 654 678 718 689 633 616 556 590 555 640 687 694 709 743 765 790 823 846 804 785 822 852 885 896 897 827 862 923 914 904 864 817 826 829 793 786 797 831 830 867 873 918 911 929 961 987 1038 1046 1103 1079 1040 1018 1045 1036 999 968 942 960 1037 1073 1082 1097 1186 1177 1187 1166 1195 1298 1398 1466 1503 1585 1571 1643 1728 1650 1579 1543 1518 1491 1390 1333 1256 1185 1235 1275 1288 1319 1433 1535 1589 1644 1689 1797 1699 1671 1654 1717 1785 1862 1869 1947 1938 1976 1957 1925 1889 1823 1844 1945 1965 1870 1858 1771 1733 1740 1690 1612 1505 1399 1388 1438 1368 1334 1239 1188 1110 1088 1090 1116 1131 1224 1375 1428 1335 1257 1222 1328 1280 1197 1240 1210 1336 1488 1572 1584 1525 1562 1471 1457 1400 1456 1509 1519 1638 1815 1902 1914 1940 1966 2092 2128 2185 2053 1992 1920 1888 1833 1800 1712 1775 1691 1672 1554 1418 1246 1202 1150 1147 1125 1100 1132 1119 1091 962 976 1000 1071 1051 991 927 871 858 787 762 725 712 706 795 815 832 859 773 833 781 748 759 791 788 866 769 726 679 708 665 661 671 655 693 635 666 622 621 677 686 707 620 564 524 492 509 455 412 434 452 443 382 361 322 301 293 261 302 362 397 415 381 430 457 489 450 469 510 560 573 530 528 517 562 534 546 488 453 431 409 396 360 355 337 331 305 286 348 419 493 518 481 482 529 563 623 713 714 705 612 672 761 964 956 940 1010 1003 926 945 988 1002 1026 1087 1135 1233 1311 1356 1434 1458 1416 1385 1369 1259 1258 1134 1067 1012 994 1021 930 963 1001 1047 1039 1107 1120 1133 1189 1383 1430 1497 1528 1520 1573 1601 1645 1692 1798 1619 1577 1574 1641 1668 1764 1765 1853 1871 1935 1929 1997 2059 2023 2028 2107 2068 2043 2022 2047 2011 2063 2091 2014 1967 1816 1781 1921 1963 2046 2086 2097 2110 2162 2220 2266 2289 2315 2418 2553 2520 2498 2449 2469 2428 2448 2510 2487 2538 2674 2705 2767 2857 2774 2721 2712 2671 2661 2530 2470 2550 2665 2686 2581 2593 2494 2463 2366 2282 2279 2357 2409 2407 2334 2288 2249 2180 2201 2204 2244 2268 2308 2346 2294 2329 2367 2399 2430 2432 2499 2543 2606 2645 2770 2799 2826 2948 2974 3000 3030 3051 3085 3149 3183 3089 3142 3182 3246 3264 3282 3334 3324 3366 3314 3211 3176 3212 3134 3028 3065 3071 3195 3197 3216 3258 3285 3332 3396 3500 3465 3517 3549 3673 3698 3742 3633 3582 3456 3387 3352 3480 3522 3572 3709 3716 3794 3814 3831 3832 3851 3981 3925 3847 3864 3868 3911 4012 4036 3969 3920 3819 3896 3763 3638 3548 3474 3473 3587 3642 3665 3725 3882 3846 3877 3809 3779 3724 3706 3527 3629 3628 3721 3760 3818 3790 3799 3729 3801 3840 3892 3944 3932 3978 4056 4172 4145 4063 3947 3936 3900 3862 3793 3751 3717 3704 3679 3616 3571 3606 3648 3715 3813 3901 3949 3974 3973 3909 3807 3560 3503 3476 3451 3502 3395 3404 3372 3266 3152 3139 3172 3307 3353 3388 3455 3491 3468 3504 3385 3409 3430 3488 3470 3448 3575 3601 3542 3515 3530 3537 3557 3431 3355 3322 3308 3364 3386 3235 3190 3140 3218 3131 3050 2910 2938 2901 2892 2856 2716 2689 2707 2723 2740 2750 2807 2886 2914 2935 2971 3009 3044 3094 3166 3252 3304 3267 3343 3239 3165 3145 3156 3126 3073 3022 2984 2865 2837 2808 2748 2656 2676 2653 2569 2435 2415 2404 2439 2322 2340 2261 2151 2168 2184 2233 2267 2416 2459 2503 2509 2424 2342 2319 2248 2174 2221 2230 2161 2138 2122 2082 2077 2029 2056 2052 2131 2099 2003 1991 1962 2074 2088 2109 2198 2316 2320 2362 2374 2381 2434 2442 2398 2425 2405 2491 2489 2566 2647 2628 2609 2709 2729 2756 2810 2855 2845 2861 2917 2999 2983 2957 3006 3081 3036 3027 3117 3164 3170 3224 3369 3335 3350 3420 3544 3611 3589 3562 3526 3632 3590 3622 3699 3754 3844 3762 3686 3743 3806 3888 3872 3867 3886 3950 4000 4031 4076 4135 4159 4133 4121 4108 4101 4186 4248 4264 4271 4302 4237 4276 4256 4321 4345 4374 4299 4249 4208 4158 4098 4088 4028 4005 3914 3986 4081 4143 4103 4046 4157 4214 4241 4305 4372 4397 4456 4460 4556 4519 4581 4627 4592 4484 4444 4421 4463 4518 4542 4621 4683 4744 4825 4884 4787 4656 4641 4558 4487 4452 4400 4328 4301 4359 4371 4423 4520 4588 4737 4879 4846 4979 4919 4794 4710 4693 4602 4495 4450 4365 4316 4257 4279 4262 4416 4560 4647 4766 4717 4786 4803 4851 4865 4904 4969 5060 5218 5288 5327 5337 5375 5452 5494 5493 5559 5580 5611 5684 5749 5748 5807 5828 5785 5808 5875 5893 5933 5894 5829 5786 5766 5708 5709 5787 5895 5975 5974 6067 6139 6068 6105 6228 6259 6181 6245 6269 6352 6529 6462 6540 6577 6523 6468 6406 6417 6475 6318 6356 6429 6478 6538 6602 6645 6673 6619 6674 6726 6756 6686 6794 6823 6839 6896 6861 6822 6954 6977 6982 6956 6933 6895 6831 6780 6728 6705 6661 6574 6514 6444 6362 6405 6439 6304 6266 6209 6215 6175 6039 6138 6213 6251 6308 6378 6437 6459 6506 6533 6442 6371 6272 6254 6334 6231 6164 6137 6066 6013 5953 5952 5913 5892 5845 5844 5827 5765 5707 5682 5656 5683 5657 5610 5658 5579 5470 5471 5389 5408 5409 5365 5287 5183 5233 5279 5137 5127 5054 4960 4871 4936 4993 5024 5088 5027 4984 4872 4880 4776 4604 4552 4512 4504 4419 4367 4415 4473 4505 4549 4479 4402 4361 4368 4432 4449 4413 4436 4395 4352 4338 4308 4210 4180 4057 3967 4071 4058 4142 4151 4144 4200 4182 4085 4097 4053 3927 3827 3696 3708 3678 3768 3747 3533 3394 3363 3312 3254 3297 3348 3418 3439 3521 3604 3636 3535 3499 3461 3371 3226 3205 3127 3194 3200 3122 3215 3199 3120 3207 3223 3097 3054 3021 3046 3091 3012 3084 3113 3213 3262 3294 3338 3383 3423 3609 3558 3620 3495 3393 3287 3257 3344 3484 3516 3567 3458 3532 3435 3359 3292 3288 3331 3326 3414 3416 3598 3777 3786 3727 3703 3764 3789 3826 3869 3919 3935 3959 3990 4027 3992 4018 4087 4118 4139 4069 4024 4019 4043 4061 4025 3960 3723 3693 3647 3772 3812 3946 3939 3866 3885 3996 4033 4129 4107 4218 4146 4106 4150 4203 4229 4251 4270 4281 4350 4389 4418 4353 4320 4247 4213 4297 4442 4437 4486 4535 4562 4587 4665 4524 4591 4544 4655 4663 4742 4877 4968 5050 5064 5093 5142 5224 5184 5236 5274 5304 5289 5329 5378 5429 5428 5415 5144 5017 4971 4809 4802 4824 4680 4595 4530 4478 4497 4522 4639 4736 4889 4920 4829 4801 4775 4735 4606 4551 4517 4501 4536 4405 4422 4278 4224 4141 4091 4045 3995 3895 3860 3822 3865 3963 4017 4047 4105 4072 4136 4293 4360 4428 4364 4318 4340 4266 4426 4462 4441 4483 4569 4620 4769 4850 4898 4959 5042 5105 5169 5263 5381 5427 5344 5271 5311 5353 5258 5162 5026 4982 4986 5082 5119 5268 5360 5388 5217 5292 5335 5451 5469 5514 5558 5609 5655 5632 5681 5747 5826 5874 5891 5912 5932 5951 5890 5931 5873 5911 5930 6010 5950 5973 5949 5948 6036 6100 6201 6242 6285 6349 6387 6507 6531 6570 6623 6665 6729 6819 6880 6814 6765 6732 6813 6878 6921 6912 6981 6978 7004 6964 6919 6845 6874 6807 6704 6630 6595 6563 6557 6488 6432 6374 6443 6306 6237 6324 6273 6252 6168 6099 6035 6009 5947 5910 5870 5889 5871 5872 5825 5824 5744 5724 5678 5653 5677 5704 5742 5743 5783 5806 5823 5843 5929 5963 6004 5938 5885 5880 5842 5815 5760 5718 5703 5674 5575 5546 5535 5460 5405 5306 5231 5241 5203 5032 5071 5013 4943 4901 4883 4836 4863 4930 4951 5038 5045 5109 5157 5242 5325 5412 5486 5524 5529 5522 5570 5587 5652 5556 5489 5536 5468 5490 5449 5404 5297 5273 5336 5321 5425 5491 5537 5629 5630 5679 5745 5784 5746 5725 5705 5706 5680 5654 5578 5608 5631 5557 5492 5450 5426 5372 5303 5179 5035 5053 4995 4966 4952 4907 4823 4771 4711 4643 4543 4494 4375 4414 4461 4540 4625 4586 4611 4677 4700 4772 4687 4645 4703 4759 4838 4893 4896 4981 5096 5041 5025 5165 5006 4903 4975 5070 5081 5158 5193 5132 5115 5090 5010 4980 5000 4956 5049 5094 5080 5172 5189 5220 5326 5377 5399 5357 5223 5309 5243 5134 5063 4899 4927 4992 5059 5122 5257 5371 5253 5407 5436 5442 5352 5262 5149 5069 5086 5040 4999 5014 4990 4906 5022 5048 4983 5029 4970 4881 4854 4912 4870 4812 4746 4682 4686 4636 4550 4585 4628 4714 4845 4751 4729 4764 4688 4741 4828 4756 4709 4661 4507 4312 4333 4383 4427 4396 4306 4243 4235 4188 4083 4052 3838 3830 3843 3773 3730 3750 3683 3731 3626 3483 3381 3323 3379 3289 3361 3402 3472 3487 3552 3539 3520 3475 3553 3615 3543 3457 3450 3407 3328 3299 3238 3222 3221 3277 3279 3325 3179 3123 3141 3106 3086 3059 3087 3118 3133 3116 3061 3055 2976 2989 2921 2908 2825 2820 2919 2891 2893 2884 2860 2833 2754 2700 2616 2635 2571 2454 2443 2548 2575 2590 2554 2417 2380 2345 2392 2484 2596 2654 2701 2759 2834 2848 2851 2947 2932 2923 2964 2978 3077 3130 3173 3210 3240 3208 3154 3088 3038 3040 3129 3201 3111 3078 3114 3063 3079 3031 2990 2942 2943 2936 2903 2870 2868 2795 2768 2760 2720 2694 2727 2764 2726 2762 2789 2803 2802 2821 2849 2929 2894 2909 2882 2832 2866 2988 2970 2883 2841 2773 2757 2739 2755 2710 2638 2546 2531 2445 2365 2222 2150 2242 2287 2412 2440 2456 2544 2625 2649 2592 2558 2535 2488 2452 2411 2318 2272 2251 2149 2212 2252 2312 2393 2376 2423 2461 2502 2468 2496 2607 2629 2704 2787 2864 2880 2734 2728 2699 2670 2640 2626 2597 2573 2547 2518 2568 2526 2458 2420 2356 2296 2333 2229 2283 2339 2446 2475 2507 2552 2576 2603 2636 2639 2695 2664 2691 2747 2775 2786 2877 2928 2982 2981 3072 3143 3150 3101 3090 3067 2995 3002 2933 2836 2822 2769 2737 2708 2681 2644 2545 2579 2441 2304 2216 2188 2156 2137 2069 2136 2057 2037 1943 2006 2125 2005 1981 1821 1778 1804 1770 1829 1803 1670 1653 1513 1470 1486 1494 1472 1386 1485 1706 1836 1892 1931 1854 1760 1716 1801 1730 1808 1919 1891 1908 1874 1722 1726 1709 1732 1788 1796 1772 1737 1719 1660 1607 1330 1317 1299 1272 1250 1201 1243 1167 1130 1062 975 971 900 850 814 772 746 799 770 784 806 861 870 906 959 1013 1035 1109 1096 1059 1032 1081 1115 1238 1318 1265 1217 1253 1181 1118 1043 1020 997 953 978 919 957 887 878 877 835 755 744 771 805 883 880 848 849 876 893 889 910 958 951 970 969 938 939 996 1011 1060 1075 1122 1052 1101 1163 1315 1286 1343 1285 1231 1143 1124 1164 1173 1230 1307 1291 1271 1284 1370 1367 1327 1215 1221 1242 1354 1373 1320 1278 1206 1324 1380 1392 1465 1449 1552 1621 1651 1780 1776 1795 1898 1932 1911 1903 1886 1916 1984 2016 2036 2081 2049 1993 1982 1897 1773 1750 1704 1631 1615 1538 1499 1498 1541 1395 1423 1483 1479 1480 1444 1355 1421 1439 1448 1469 1396 1411 1381 1397 1502 1678 1715 1681 1721 1761 1802 1811 1873 1937 1983 1994 1975 1910 1885 1824 1860 1918 1950 2050 2132 2147 2183 2241 2305 2270 2371 2427 2481 2525 2578 2622 2687 2660 2631 2666 2634 2534 2486 2429 2326 2226 2170 2134 2055 2127 2160 1961 1876 1865 1868 1953 1990 1958 2051 2175 2274 2297 2330 2203 2106 2080 1988 2008 2121 2002 1893 1930 1759 1793 1840 1777 1807 1787 1738 1812 1949 1964 2034 2035 2040 2093 2116 2164 2114 2154 2182 2209 2237 2277 2281 2355 2379 2437 2401 2302 2337 2317 2258 2219 2186 2192 2208 2236 2126 2102 2073 1956 1851 1857 1814 1810 1789 1749 1686 1705 1635 1618 1586 1557 1537 1517 1561 1489 1422 1349 1220 1292 1377 1296 1281 1219 1211 1303 1410 1443 1441 1493 1544 1610 1742 1784 1835 1843 1906 1942 2025 2071 2115 2119 2120 2087 2009 2078 2141 2166 2232 2269 2301 2343 2410 2472 2490 2517 2541 2589 2611 2610 2685 2738 2641 2495 2477 2438 2408 2455 2537 2540 2601 2646 2688 2772 2777 2852 2879 2931 2972 3010 3016 3043 3108 3151 3177 3171 3158 3161 3187 3105 3095 3162 3206 3260 3305 3243 3188 3192 3168 3135 3080 3069 2958 2941 2939 2878 2961 2980 2905 2853 2895 2809 2791 2680 2668 2745 2713 2690 2673 2659 2564 2501 2585 2663 2711 2703 2619 2508 2414 2382 2293 2265 2240 2256 2285 2324 2389 2462 2385 2286 2259 2155 2045 2041 2021 2100 2143 2211 2246 2344 2321 2303 2431 2473 2617 2692 2642 2586 2624 2722 2784 2801 2874 2915 2952 2993 3020 3096 2994 2965 2869 2778 2872 2906 2963 2888 2835 2806 2819 2798 2916 2969 2991 3056 3070 3159 3181 3189 3237 3360 3428 3479 3490 3477 3518 3595 3691 3692 3728 3745 3805 3776 3741 3680 3613 3581 3531 3486 3445 3400 3351 3382 3419 3514 3433 3405 3283 3228 3247 3169 3109 3121 3155 3119 3186 3265 3269 3295 3306 3329 3422 3440 3478 3588 3675 3631 3577 3496 3529 3559 3641 3690 3726 3761 3804 3766 3734 3707 3668 3635 3568 3507 3556 3597 3634 3670 3759 3839 3833 3837 3893 4009 4020 4062 4060 3993 3918 3891 3948 3894 3951 4134 4240 4268 4192 4260 4358 4465 4539 4601 4578 4503 4482 4443 4380 4388 4346 4217 4137 4055 4041 4004 3955 3923 3899 3861 3929 4003 3902 3835 3816 3783 3757 3792 3859 4016 4042 4156 4179 4204 4201 4138 4070 4123 4174 4181 4223 4267 4292 4356 4434 4508 4598 4629 4435 4455 4366 4412 4430 4404 4287 4258 4250 4220 4183 4048 4022 4075 4095 4178 4115 4040 3965 3910 3870 3769 3824 3829 3834 3781 3737 3803 3890 3931 3873 3908 3964 3991 4013 3972 3930 3887 3917 3857 3976 3968 4039 4064 4090 4127 4163 4168 4175 4120 4100 4068 3982 3987 3970 4038 4074 4114 4130 4233 4303 4197 4259 4298 4377 4311 4387 4468 4472 4554 4615 4584 4511 4438 4498 4499 4448 4385 4382 4399 4323 4326 4245 4324 4342 4386 4492 4541 4490 4439 4336 4280 4269 4335 4310 4215 4162 4124 4140 4209 4195 4222 4322 4379 4394 4527 4577 4669 4716 4708 4767 4847 4900 4857 4774 4691 4725 4740 4707 4685 4654 4590 4576 4594 4582 4470 4451 4480 4515 4526 4571 4692 4790 4833 4894 4911 4954 5056 5097 5117 5084 5067 5020 5034 5106 5159 5252 5346 5310 5294 5343 5356 5445 5435 5419 5315 5248 5160 5036 5011 4875 4935 4861 4785 4715 4652 4624 4573 4597 4698 4676 4779 4817 4806 4718 4763 4739 4668 4600 4493 4547 4618 4662 4757 4816 4814 4827 4868 4940 5016 5009 4953 5079 5161 5213 5256 5194 5246 5387 5438 5395 5403 5282 5191 5139 5092 4991 5076 5175 5182 5209 5201 5074 5062 5012 4965 4918 4913 4950 4864 4837 4811 4755 4754 4724 4689 4648 4575 4476 4393 4304 4354 4370 4392 4291 4265 4189 4112 4119 4078 4035 4021 3971 3941 3852 3849 3871 3853 3811 3825 3778 3722 3687 3669 3640 3619 3569 3617 3645 3614 3697 3733 3802 3719 3685 3677 3580 3506 3454 3415 3421 3389 3453 3452 3498 3586 3623 3528 3493 3501 3444 3406 3374 3310 3339 3368 3365 3327 3317 3293 3241 3229 3291 3281 3298 3276 3268 3261 3316 3346 3373 3392 3427 3376 3413 3337 3336 3256 3230 3248 3193 3137 3184 3099 3074 2997 2966 2922 2900 2920 2844 2816 2766 2735 2732 2643 2615 2599 2621 2652 2672 2693 2758 2731 2683 2679 2648 2632 2582 2480 2403 2387 2352 2373 2422 2313 2331 2254 2264 2250 2191 2187 2111 2117 2072 2140 2173 2193 2255 2225 2207 2163 2108 2130 2181 2202 2096 2031 1917 1864 1882 1960 1980 2042 2048 2020 1977 1995 1955 1948 1896 1881 1834 1878 1827 1842 1909 1901 1828 1880 1928 1899 1861 1723 1735 1626 1620 1652 1587 1490 1487 1515 1534 1594 1648 1701 1762 1683 1786 1698 1622 1598 1583 1595 1711 1747 1753 1754 1680 1663 1482 1516 1558 1511 1455 1442 1372 1322 1361 1352 1295 1245 1226 1200 1268 1176 1180 1316 1365 1353 1409 1429 1450 1420 1454 1476 1523 1539 1623 1688 1727 1769 1799 1820 1845 1877 1944 2038 2067 2104 2095 2019 2178 2260 2314 2300 2402 2391 2363 2483 2485 2524 2561 2602 2651 2662 2730 2782 2800 2792 2718 2682 2650 2555 2584 2600 2630 2612 2560 2523 2516 2467 2493 2466 2388 2323 2375 2426 2464 2515 2562 2551 2587 2559 2536 2492 2512 2444 2386 2341 2311 2278 2245 2214 2231 2190 2118 2101 2090 2004 1978 1941 1890 1841 1849 1850 1825 1855 1847 1805 1768 1707 1682 1679 1512 1582 1659 1710 1725 1744 1658 1700 1839 1927 1939 1895 1905 1979 1985 2001 2054 2112 2085 2145 2217 2234 2271 2335 2377 2349 2350 2421 2465 2433 2406 2378 2358 2310 2325 2295 2213 2061 2033 2076 2060 1998 1936 1934 1959 1954 1913 1875 1879 1852 1720 1743 1752 1751 1757 1676 1604 1555 1570 1556 1636 1628 1656 1549 1492 1427 1360 1408 1467 1506 1481 1527 1606 1655 1667 1664 1647 1563 1546 1432 1426 1387 1413 1440 1524 1553 1551 1624 1600 1567 1611 1548 1526 1568 1632 1637 1646 1703 1729 1791 1741 1813 1763 1782 1838 1867 1926 1904 1987 2017 2070 2075 2079 2026 2098 2159 2135 2083 2165 2224 2239 2290 2348 2370 2395 2436 2474 2522 2549 2532 2594 2702 2765 2677 2591 2514 2457 2394 2419 2453 2513 2572 2633 2618 2539 2563 2580 2613 2678 2749 2771 2783 2751 2830 2863 2843 2875 2959 2962 3039 3064 3125 3144 3100 3124 3068 3035 3018 3003 3005 3057 3104 3219 3272 3318 3362 3375 3429 3510 3554 3511 3408 3459 3471 3485 3578 3608 3592 3659 3682 3753 3775 3746 3661 3547 3576 3663 3607 3664 3710 3463 3370 3354 3357 3286 3231 3178 3220 3274 3349 3320 3250 3284 3198 3157 3066 2946 2977 3076 3103 3075 3042 3029 2956 2937 2954 2862 2839 2804 2796 2815 2926 2918 2867 2823 2818 2752 2744 2706 2627 2598 2570 2533 2557 2623 2657 2696 2698 2605 2595 2556 2528 2478 2479 2500 2451 2372 2360 2347 2359 2332 2291 2215 2206 2228 2189 2218 2227 2176 2194 2263 2275 2309 2292 2384 2390 2506 2511 2505 2529 2608 2604 2637 2667 2658 2719 2763 2736 2794 2828 2940 2950 3008 3047 3083 3093 3128 3175 3227 3214 3209 3245 3102 3024 2967 2912 2898 2873 2876 2854 2811 2753 2793 2733 2780 2846 2827 2776 2797 2814 2838 2842 2887 2885 2902 2850 2881 2889 2899 2968 2998 3041 3037 3015 2955 2979 3026 3053 3011 3019 3048 3025 2930 2927 2973 2913 2924 2890 2859 2949 2960 3007 3060 3023 2992 2934 2951 3045 3032 3092 3153 3202 3204 3146 3191 3180 3232 3242 3244 3302 3278 3259 3313 3340 3412 3401 3380 3417 3300 3301 3255 3203 3112 3107 3013 3034 3033 3017 3098 3082 3049 3058 3052 3132 3160 3115 3136 3174 3270 3321 3398 3449 3492 3384 3441 3467 3505 3524 3541 3596 3662 3630 3700 3752 3767 3798 3897 3985 3984 4026 4029 3980 4002 4049 4084 4102 4228 4244 4255 4285 4348 4464 4458 4420 4369 4277 4148 4113 4092 3966 4006 3957 3858 3823 3889 3961 3921 3913 3848 3884 3998 3954 3854 3810 3774 3666 3643 3651 3591 3525 3508 3489 3437 3540 3639 3748 3782 3689 3681 3654 3627 3497 3481 3443 3411 3358 3275 3253 3234 3311 3345 3410 3447 3494 3534 3563 3624 3550 3618 3672 3732 3765 3770 3784 3795 3874 3997 4054 4122 4010 3942 3907 3937 3989 4023 4096 4147 4165 4199 4206 4246 4288 4466 4477 4546 4485 4431 4407 4343 4274 4236 4166 4194 4125 4080 4007 3903 3875 3878 3953 4008 4059 4171 4332 4300 4329 4355 4433 4445 4471 4410 4401 4424 4391 4453 4425 4440 4132 4289 4327 4351 4363 4474 4491 4596 4723 4788 4733 4798 4878 4932 4939 4946 5078 5108 5174 5216 5266 5307 5358 5333 5302 5319 5270 5155 5138 5015 5052 5085 5101 5021 4964 4916 4773 4583 4635 4664 4666 4566 4514 4467 4454 4373 4313 4344 4211 4193 4149 4117 4014 3979 3999 4037 4067 4034 3952 3905 3898 3841 3820 3771 3720 3694 3667 3644 3600 3566 3536 3512 3599 3509 3555 3585 3655 3713 3695 3684 3718 3749 3817 3879 3945 3977 4015 3943 3916 3883 3856 3836 3796 3787 3756 3758 3828 3855 3934 3962 3880 3842 3800 3780 3788 3755 3711 3646 3446 3462 3513 3594 3650 3653 3676 3701 3740 3735 3705 3674 3612 3564 3621 3671 3656 3649 3637 3610 3593 3573 3546 3519 3482 3434 3403 3469 3426 3399 3341 3233 3271 3303 3315 3319 3342 3391 3442 3432 3390 3378 3356 3333 3236 3225 3217 3249 3330 3397 3425 3460 3523 3570 3605 3652 3660 3738 3797 3785 3739 3702 3625 3574 3551 3464 3438 3436 3538 3579 3657 3712 3736 3714 3815 3821 3808 3876 3922 3845 3881 3940 3956 3912 3928 3938 3958 3988 4011 4077 4104 4126 4030 4032 4111 4202 4155 4212 4296 4314 4381 4362 4290 4173 4254 4232 4253 4339 4411 4408 4384 4510 4459 4502 4509 4564 4523 4525 4613 4706 4832 4782 4840 4820 4730 4705 4650 4609 4593 4533 4489 4538 4603 4721 4800 4799 4858 4869 4926 5098 5208 5150 5083 5226 5281 5260 5417 5410 5477 5531 5484 5458 5525 5569 5534 5528 5509 5463 5318 5296 5197 5176 5141 4963 4882 4888 4743 4762 4697 4574 4559 4720 4702 4748 4797 4841 4895 4910 4848 4819 4738 4761 4732 4673 4610 4529 4565 4568 4667 4722 4792 4784 4753 4696 4679 4630 4672 4778 4842 4826 4887 4909 4947 5008 5019 4985 5037 5107 5212 5240 5211 5135 5254 5251 5131 5235 5300 5416 5421 5444 5457 5437 5418 5384 5342 5349 5350 5434 5386 5284 5255 5295 5374 5414 5443 5462 5446 5440 5422 5363 5285 5245 5147 5133 5202 5164 5143 5073 5003 4974 4942 4914 4874 4905 4973 5004 5065 5005 4961 4849 4844 4789 4793 4822 4917 4949 4958 5018 5068 5055 5126 5238 5345 5265 5181 5215 5308 5423 5459 5465 5479 5504 5500 5527 5552 5593 5597 5602 5603 5672 5644 5642 5673 5701 5697 5639 5622 5598 5551 5533 5532 5513 5466 5480 5503 5505 5483 5512 5510 5548 5576 5627 5601 5595 5571 5553 5568 5589 5625 5675 5648 5643 5621 5591 5619 5626 5668 5670 5698 5695 5700 5717 5741 5762 5793 5778 5803 5817 5799 5781 5777 5763 5761 5734 5720 5719 5721 5740 5816 5820 5822 5861 5881 5883 5866 5859 5840 5839 5836 5821 5837 5868 5887 5882 5907 5919 5922 5928 5966 5993 6000 5990 5968 6021 6016 6001 5964 5940 5924 5942 5939 5965 5970 6006 6047 6078 6051 5997 5961 6008 6002 5967 5945 5884 5835 5780 5757 5736 5756 5737 5699 5646 5676 5606 5607 5530 5502 5464 5338 5314 5290 5362 5447 5482 5507 5554 5596 5624 5645 5671 5594 5592 5549 5506 5448 5398 5334 5320 5286 5227 5339 5400 5420 5461 5523 5555 5620 5641 5696 5628 5738 5779 5801 5782 5805 5903 5909 5960 5972 6034 6060 6156 6189 6154 6132 6082 6171 6223 6309 6337 6307 6434 6464 6481 6365 6347 6305 6221 6152 6155 6098 6097 6020 6026 5946 5926 5860 5795 5819 5764 5739 5818 5864 5904 5944 5994 5971 6033 6089 6146 6198 6050 6058 6077 6159 6284 6222 6282 6220 6188 6150 6092 6032 5983 5923 5902 5841 5838 5863 5908 5941 5921 5834 5797 5735 5702 5723 5722 5759 5758 5800 5814 5862 5867 5869 5888 5943 5962 5996 6086 6120 6145 6182 6205 6295 6463 6377 6321 6271 6170 6144 6153 6125 6122 6130 6157 6187 6277 6385 6494 6398 6579 6608 6580 6482 6379 6395 6320 6333 6319 6380 6419 6441 6466 6491 6454 6393 6424 6554 6586 6667 6685 6722 6767 6718 6761 6840 6859 6681 6635 6593 6534 6609 6498 6535 6594 6509 6400 6274 6330 6420 6545 6683 6671 6611 6550 6549 6628 6555 6565 6457 6401 6275 6263 6206 6197 6360 6436 6519 6505 6451 6390 6369 6440 6541 6636 6702 6672 6725 6776 6849 6889 6967 6882 6907 6947 6989 7019 7089 7040 6996 7052 7118 7152 7215 7195 7158 7104 7073 7138 7102 7063 7034 6994 6939 6908 6963 6937 6835 6806 6716 6656 6589 6629 6647 6678 6734 6904 6962 6993 6966 6938 6985 7022 6942 6838 6754 6809 6783 6662 6612 6539 6512 6402 6430 6471 6520 6606 6497 6322 6314 6410 6447 6467 6381 6386 6302 6212 6131 6246 6185 6147 6183 6253 6289 6316 6403 6418 6470 6485 6581 6679 6692 6748 6800 6774 6738 6700 6648 6605 6543 6495 6556 6493 6408 6382 6286 6323 6342 6373 6423 6499 6567 6632 6709 6741 6601 6553 6640 6544 6616 6664 6703 6684 6770 6828 6883 6911 6941 6836 6891 6929 7010 6986 6997 6953 6910 6926 6890 6930 6914 7012 7016 6984 6988 6968 7020 7064 7057 7122 7135 7168 7205 7345 7321 7336 7320 7292 7240 7204 7166 7127 7079 7067 7111 7095 7085 7163 7220 7182 7202 7241 7258 7275 7273 7306 7327 7328 7291 7261 7267 7316 7342 7353 7369 7382 7414 7431 7425 7397 7444 7465 7459 7489 7480 7463 7458 7447 7426 7399 7363 7268 7236 7249 7269 7349 7386 7427 7445 7453 7455 7467 7478 7486 7493 7483 7454 7438 7429 7402 7377 7406 7375 7359 7339 7303 7281 7237 7191 7150 7142 7077 7123 7096 7062 7103 7143 7188 7179 7115 7092 6987 7009 6973 6817 6742 6653 6598 6568 6536 6361 6351 6257 6161 6133 6134 6207 6241 6265 6357 6315 6350 6388 6412 6618 6614 6657 6698 6830 6920 7001 6790 6787 6749 6820 6832 6913 6925 6869 6777 6669 6637 6597 6537 6472 6502 6473 6367 6325 6173 6174 6264 6219 6101 6102 6063 6064 6135 6202 6211 6232 6278 6421 6479 6500 6587 6584 6522 6452 6313 6268 6203 6300 6458 6518 6599 6649 6701 6736 6687 6737 6784 6803 6932 6916 6900 6841 6801 6781 6717 6572 6547 6474 6527 6603 6699 6735 6771 6693 6658 6721 6766 6798 6892 6855 6903 6944 7074 7125 7130 7154 7041 7026 7008 7027 7059 7090 7035 7002 6969 6893 6860 6871 6782 6762 6724 6779 6811 6875 6865 6945 6884 6829 6793 6739 6688 6642 6624 6532 6453 6414 6363 6297 6190 6136 6037 6011 6038 6012 6065 6103 6104 6243 6310 6178 6191 6249 6345 6364 6496 6582 6633 6643 6691 6755 6833 6821 6805 6751 6863 6850 6887 6894 6743 6641 6560 6528 6521 6510 6404 6331 6256 6176 6214 6240 6291 6338 6370 6425 6480 6569 6644 6680 6651 6573 6625 6666 6689 6727 6714 6853 6928 6990 6974 6999 7014 7024 7056 7114 7108 7153 7126 6998 7060 7029 7080 7119 7131 7155 7183 7263 7294 7274 7337 7378 7389 7357 7442 7383 7347 7334 7365 7338 7257 7218 7193 7212 7198 7169 7144 7140 7093 7054 7042 7128 7156 7226 7367 7422 7449 7457 7476 7481 7468 7474 7496 7497 7484 7441 7436 7433 7428 7419 7404 7362 7372 7354 7302 7298 7209 7185 7167 7161 7136 7107 7105 7070 7045 7043 7036 7100 7132 7217 7266 7309 7352 7288 7207 7101 7116 7176 7148 7066 7033 6992 6897 6843 6927 6824 6711 6663 6708 6752 6744 6799 6772 6866 6905 6876 6791 6733 6731 6827 6950 7021 7050 7031 7091 7120 7113 7044 7094 7180 7200 7216 7239 7259 7282 7324 7317 7245 7243 7184 7145 7221 7141 7229 7228 7250 7343 7371 7387 7411 7443 7456 7450 7432 7430 7313 7325 7332 7326 7360 7380 7407 7434 7421 7374 7381 7418 7424 7398 7423 7448 7439 7446 7451 7472 7482 7485 7487 7491 7498 7507 7505 7512 7514 7515 7518 7511 7506 7501 7494 7475 7471 7477 7490 7509 7513 7517 7521 7529 7530 7527 7524 7519 7502 7503 7510 7520 7525 7528 7531 7534 7538 7540 7545 7547 7558 7549 7542 7535 7532 7523 7522 7526 7533 7548 7553 7551 7556 7562 7564 7570 7580 7560 7566 7572 7569 7584 7601 7610 7624 7628 7615 7600 7616 7606 7626 7640 7647 7670 7680 7674 7646 7651 7642 7657 7676 7663 7638 7637 7644 7682 7678 7667 7652 7653 7607 7618 7605 7630 7621 7602 7595 7590 7573 7559 7541 7552 7536 7537 7543 7546 7550 7544 7539 7555 7554 7579 7691 7701 7713 7726 7717 7699 7721 7736 7762 7753 7732 7741 7763 7780 7784 7773 7761 7751 7748 7731 7729 7747 7758 7781 7790 7806 7813 7803 7832 7808 7801 7782 7752 7744 7725 7707 7711 7712 7720 7733 7742 7770 7777 7802 7814 7826 7805 7787 7815 7836 7837 7839 7840 7843 7835 7849 7858 7857 7878 7875 7912 7922 7928 7931 7944 7953 7940 7929 7907 7904 7885 7887 7876 7855 7864 7871 7874 7882 7899 7888 7894 7913 7918 7937 7958 7962 7973 7990 8011 8013 8052 8064 8079 8043 8028 8007 8002 7975 7968 7948 7941 7910 7906 7891 7902 7903 7865 7863 7853 7870 7893 7909 7917 7927 7942 7911 7925 7946 7954 7963 7977 7992 7999 8006 8009 8015 8024 7993 8003 7976 7959 7967 7978 7988 7986 8001 7997 8004 7991 8016 8022 8017 8005 8021 8025 8036 8085 8087 8109 8148 8160 8167 8188 8154 8135 8116 8069 8038 8042 8062 8092 8075 8061 8080 8108 8117 8089 8107 8122 8149 8152 8142 8159 8168 8184 8192 8204 8185 8169 8180 8205 8198 8189 8186 8170 8162 8171 8207 8217 8224 8228 8233 8238 8234 8235 8221 8216 8219 8197 8187 8176 8212 8225 8231 8239 8237 8241 8244 8245 8246 8242 8243 8240 8236 8232 8230 8226 8222 8214 8209 8213 8223 8227 8229 8220 8194 8181 8173 8179 8165 8157 8155 8136 8132 8119 8104 8101 8094 8083 8060 8049 8050 8027 8041 8063 8090 8102 8110 8139 8166 8182 8195 8200 8202 8218 8210 8211 8199 8215 8203 8190 8175 8156 8150 8143 8147 8133 8113 8100 8097 8129 8144 8161 8191 8208 8206 8196 8183 8163 8174 8178 8177 8172 8153 8158 8164 8151 8138 8141 8131 8093 8070 8059 8071 8055 8030 8031 8039 8054 8098 8115 8105 8126 8125 8134 8137 8130 8111 8095 8091 8057 8068 8081 8124 8121 8123 8145 8128 8120 8099 8065 8037 8033 8023 8008 8010 8014 7998 7994 7971 7981 7984 7960 7966 7995 7996 7989 7979 7974 7952 7945 7949 7943 7920 7951 7957 7969 7985 7983 7970 7919 7914 7869 7862 7868 7880 7908 7930 7950 7932 7900 7877 7873 7866 7847 7859 7850 7841 7861 7884 7895 7901 7916 7935 7897 7889 7879 7883 7860 7854 7856 7845 7838 7834 7816 7811 7821 7818 7822 7793 7812 7824 7830 7825 7809 7786 7768 7756 7738 7755 7767 7754 7746 7718 7705 7688 7684 7714 7702 7723 7778 7769 7749 7685 7743 7757 7764 7779 7771 7785 7799 7807 7829 7833 7819 7810 7844 7827 7794 7828 7842 7890 7955 8020 8029 8040 8051 8077 8067 8073 8066 8086 8058 8076 8096 8106 8084 8088 8056 8044 8072 8103 8114 8112 8118 8140 8127 8146 8193 8201 8074 8082 8053 8046 8048 8045 8035 8032 8018 7982 7987 7964 7965 7980 8012 8026 8034 8078 8047 8019 8000 7961 7947 7938 7923 7933 7886 7846 7817 7776 7795 7775 7766 7765 7739 7740 7730 7750 7735 7704 7727 7792 7789 7791 7788 7804 7831 7820 7823 7848 7851 7872 7915 7892 7898 7881 7905 7924 7956 7972 7939 7934 7936 7926 7921 7896 7867 7852 7800 7798 7774 7728 7709 7706 7722 7715 7719 7708 7716 7734 7745 7759 7783 7796 7797 7772 7760 7737 7724 7710 7700 7696 7693 7690 7689 7703 7697 7681 7692 7686 7673 7648 7636 7612 7623 7614 7603 7591 7571 7565 7594 7608 7619 7643 7645 7655 7631 7617 7598 7583 7593 7597 7609 7632 7641 7659 7658 7654 7633 7649 7664 7660 7665 7683 7677 7662 7687 7695 7694 7679 7672 7698 7669 7671 7675 7668 7666 7656 7627 7634 7661 7635 7650 7639 7625 7620 7611 7592 7586 7596 7589 7581 7578 7568 7588 7599 7604 7613 7629 7622 7574 7576 7582 7567 7575 7585 7577 7587 7563 7561 7557 7516 7508 7504 7500 7495 7499 7492 7488 7479 7461 7469 7464 7470 7462 7473 7466 7460 7437 7452 7440 7408 7333 7314 7279 7197 7192 7264 7310 7247 7223 7290 7308 7254 7246 7293 7335 7323 7300 7283 7222 7262 7224 7256 7265 7304 7278 7322 7255 7234 7190 7232 7299 7348 7368 7351 7370 7373 7366 7341 7318 7312 7297 7285 7244 7214 7252 7238 7186 7086 7075 7025 6918 6870 6768 6785 6789 6851 6842 6710 6690 6646 6592 6503 6559 6578 6469 6516 6558 6585 6620 6571 6551 6610 6650 6654 6706 6764 6746 6834 6797 6712 6626 6588 6591 6476 6415 6366 6317 6296 6270 6250 6165 6167 6238 6312 6433 6354 6290 6336 6355 6230 6208 6218 6108 6072 6140 6200 6267 6332 6411 6448 6455 6564 6477 6397 6329 6192 6195 6227 6343 6280 6359 6368 6431 6501 6524 6676 6713 6795 6868 6948 7000 7039 7134 7177 7159 7121 7206 7194 7129 7076 7038 6995 6924 6846 6753 6723 6696 6622 6575 6517 6484 6389 6396 6327 6281 6196 6151 6111 6109 6053 6028 6027 6017 5985 5988 5986 5995 6023 6048 6095 6129 6162 6204 6239 6210 6160 6117 6091 6073 6142 6186 6193 6124 6115 6093 6090 6030 5984 5955 5978 6042 5915 5898 5850 5851 5813 5789 5753 5772 5731 5692 5636 5664 5714 5732 5693 5638 5637 5582 5542 5476 5455 5392 5204 5185 5163 5130 5167 5111 5095 4977 4948 4967 4944 4852 4728 4670 4658 4758 4831 4856 4876 4886 4726 4704 4750 4805 4830 4867 4933 4915 4862 4813 4891 4860 4780 4843 4902 4791 4818 4890 4976 4996 5023 5099 5075 5110 5072 5046 4987 5058 4938 4962 5007 5198 5228 5332 5433 5397 5177 5145 5152 5229 5237 5324 5366 5275 5173 5190 5153 5089 5061 5128 5187 5205 5264 5276 5234 5267 5232 5171 5136 5103 5146 5186 5261 5396 5317 5330 5354 5359 5301 5230 5272 5380 5475 5518 5581 5541 5499 5517 5540 5565 5635 5691 5713 5712 5730 5751 5752 5812 5849 5935 6015 6041 6071 6107 6040 5977 6070 6179 6294 6217 6260 6301 6335 6460 6513 6450 6409 6348 6353 6303 6244 6194 6248 6293 6172 6229 6261 6339 6391 6445 6492 6546 6615 6750 6796 6854 6730 6788 6858 6923 6958 6975 6922 6951 7055 7071 6976 6915 6862 7015 7047 7053 7072 7088 7151 7164 7187 7149 7110 7068 6961 6946 6934 6818 6778 6720 6639 6617 6600 6583 6638 6655 6682 6757 6675 6760 6815 6857 6881 6917 6856 6931 6943 6837 6763 6719 6613 6530 6515 6483 6428 6372 6358 6255 6216 6298 6311 6326 6413 6427 6511 6288 6233 6224 6177 6106 6069 6014 5954 5846 5767 5727 5809 5788 5847 5876 5896 5976 5934 5914 5830 5810 5848 5897 5877 5811 5771 5729 5711 5690 5728 5770 5769 5768 5688 5662 5661 5687 5562 5515 5496 5539 5561 5660 5659 5710 5750 5726 5686 5685 5633 5612 5613 5614 5560 5538 5495 5472 5430 5413 5347 5385 5298 5207 5113 5124 5120 5039 5249 5214 5280 5406 5382 5313 5401 5195 5125 5100 5033 5001 5047 5002 4908 4768 4731 4783 4747 4694 4637 4599 4695 4616 4506 4429 4378 4325 4319 4252 4315 4446 4567 4607 4642 4681 4712 4795 4859 4921 4873 4892 4934 4978 5066 5129 5156 5221 5373 5431 5432 5473 5453 5402 5390 5269 5196 5123 5200 5166 5170 5102 5057 5148 5121 5116 5247 5368 5348 5391 5454 5497 5563 5564 5634 5663 5689 5615 5474 5498 5516 5369 5323 5361 5316 5293 5188 5210 5151 4989 4928 4866 4855 4752 4678 4622 4589 4649 4612 4516 4475 4496 4534 4570 4545 4513 4548 4555 4623 4488 4572 4777 4922 5031 4957 4937 4885 4821 4807 4749 4713 4674 4537 4376 4272 4330 4230 4398 4347 4317 4309 4307 4238 4187 4110 4082 4066 3983 3933 3915 3904 3924 3975 3994 3906 3863 3791 3744 3850 4001 4109 4093 4154 4169 4196 4242 4261 4295 4286 4273 4226 4205 4116 4079 4086 4170 4221 4282 4403 4406 4417 4481 4469 4457 4521 4557 4614 4651 4699 4804 4734 4657 4605 4561 4532 4553 4500 4528 4531 4447 4409 4357 4331 4390 4349 4341 4337 4234 4167 4164 4190 4089 4065 4099 4176 4227 4263 4294 4334 4283 4216 4191 4152 4160 4177 4131 4219 4239 4153 4184 4207 4161 4073 4044 4050 4051 4579 4626 4608 4644 4617 4653 4659 4646 4640 4675 4815 4834 4727 4690 4765 4897 4945 4923 4955 4997 5278 5370 5394 5340 5376 5322 5351 5299 5328 5277 5192 5140 5154 5112 5104 5051 5030 5206 5219 5178 5225 5244 5291 5364 5393 5355 5367 5383 5519 5583 5616 5566 5567 5543 5520 5456 5545 5544 5585 5584 5617 5733 5755 5774 5790 5754 5716 5715 5773 5831 5852 5916 5956 5982 5998 6019 5999 6043 6056 6083 6059 6112 6121 6127 6148 6169 6287 6225 6166 6110 6116 6141 6163 6235 6341 6542 6576 6652 6695 6804 6852 6812 6786 6816 6909 6952 7017 7011 6970 6888 6902 6899 6935 6898 6864 6745 6670 6621 6486 6422 6399 6438 6504 6552 6660 6773 6847 6949 6979 7005 7049 7030 7003 7058 7097 7124 7146 7117 7137 7147 7106 7174 7230 7235 7287 7331 7346 7376 7395 7364 7400 7412 7391 7403 7417 7405 7384 7379 7356 7344 7296 7286 7227 7225 7270 7315 7295 7253 7208 7139 7087 7082 7023 6879 6825 6885 6957 6965 7018 7006 7032 7046 7069 7078 7171 7133 7165 7203 7201 7289 7355 7361 7392 7396 7388 7390 7416 7401 7393 7410 7233 7170 7013 6972 6877 6867 6769 6844 6694 6758 6747 6906 6991 7098 7173 7277 7307 7385 7420 7329 7248 7189 7210 7083 7051 6971 6526 6407 6394 6548 6508 6604 6668 6759 6810 6959 6980 7028 7007 6983 7065 7099 7048 6955 6873 6677 6707 6740 6848 7061 7162 7112 7084 7172 7181 7175 7199 7178 7157 7196 7211 7251 7301 7319 7340 7350 7394 7435 7413 7409 7415 7311 7280 7231 7260 7272 7271 7219 7213 7242 7358 7305 7330 7284 7276 7160 7109 6940 6886 6808 6826 6384 6283 6276 6258 6096 6113 6149 6247 6299 6392 6456 6465 6292 6226 6199 6126 6114 6062 6024 6022 6005 6046 6054 6128 6143 6184 6279 6344 6376 6180 6031 6055 6085 6119 6084 6076 6080 6075 6081 6057 6074 6118 6234 6487 6416 6631 6562 6590 6449 6375 6446 6461 6489 6561 6607 6627 6659 6715 6775 6901 6960 7081 7037 6936 6872 6802 6792 6697 6634 6596 6566 6525 6490 6426 6346 6262 6236 6328 6383 6435 6340 6158 6087 6079 6045 5969 5991 5980 6007 5979 6052 6061 6094 6049 6029 6003 5957 5917 5853 5832 5899 5854 5878 5900 5936 5992 5981 6018 5958 5987 6025 6123 6088 6044 5989 5959 5937 5918 5855 5775 5791 5833 5856 5901 5886 5857 5694 5665 5666 5667 5776 5794 5804 5802 5798 5792 5879 5858 5865 5920 5925 5927 5906 5905 5796 5651 5623 5669 5647 5640 5649 5650 5604 5599 5586 5600 5618 5572 5590 5605 5547 5521 5508 5487 5467 5485 5478 5488 5501 5511 5526 5550 5577 5588 5573 5574 5441 5379 5424 5312 5239 5305 5411 5481 5439 5341 5028 4998 4929 4988 5168 5283 4994 4925 4972 5091 5114 5250 5259 5118 5077 5044 4941 4931 4924 5087 5180 5331 5222 5199 5043 4796 4580 4631 4563 4632 4671 4745 4770 4810 4839 4835 4853 4808 4781 4719 4701 4684 4634 4638 4619 4760 4660 4633 4275 4284 4231 4198 4225 4185 4128 4094 3926 3583 3565 3584 3603 3688 3658 3561 3602 3545 3424 3466 3367 3347 3309 3273 3296 3251 3280 3377 3290 3263 3185 3167 3148 3196 3147 3110 3163 3138 3062 2985 2953 2907 2925 2871 2790 2785 2717 2675 2725 2779 2788 2829 2817 2896 2858 2897 2904 2812 2684 2583 2482 2383 2328 2276 2247 2205 2157 2123 2148 2262 2273 2298 2364 2476 2527 2577 2471 2368 2284 2195 2171 2129 2062 2012 1946 1900 1872 1745 1724 1817 1830 1951 1968 2000 1989 2044 1952 1922 1969 2058 2039 2196 2243 2336 2460 2396 2397 2361 2450 2504 2542 2761 2742 2824 2847 2945 3014 2996 3001 2986 2975 3004 2987 2944 2911 2831 2813 2746 2714 2805 2840 2781 2669 2715 2743 2741 2724 2697 2655 2567 2565 2614 2620 2588 2519 2179 2124 2169 2146 1859 1831 1708 1662 1634 1627 1591 1545 1642 1669 1697 1734 1714 1674 1630 1559 1581 1592 1593 1580 1547 1569 1566 1531 1514 1536 1473 1435 1417 1424 1314 1329 1371 1436 1425 1379 1345 1294 1283 1252 1208 1175 1098 1114 1145 1172 1223 1179 1293 1232 1165 1313 1351 1414 1464 1501 1508 1468 1407 1384 1342 1279 1225 1216 1183 1162 1182 1178 1308 1264 1161 1227 1193 1153 1157 1218 1277 1348 1270 1309 1393 1484 1522 1550 1565 1597 1588 1767 1755 1756 1779 1846 1974 2007 2015 2032 2066 2105 2177 2210 2235 2223 2158 2133 2142 2197 2167 2153 2089 2018 1972 1999 2065 2010 1973 1986 2027 1923 1884 1826 1794 1766 1731 1809 1736 1614 1629 1640 1696 1695 1673 1576 1685 1758 1819 1907 1912 2013 1971 1924 1933 1866 1894 2030 2094 2064 2024 1996 2144 2139 2253 2338 2354 2400 2413 2447 2497 2574 2521 2369 2351 2280 2257 2172 2200 2299 2307 2353 2327 2306 2238 2199 2152 2103 2113 2084 1970 1915 1863 1746 1609 1608 1657 1665 1694 1639 1560 1613 1661 1748 1792 1790 1718 1675 1605 1564 1500 1462 1341 1237 1263 1160 1121 1126 1205 1321 1405 1358 1347 1312 1290 1251 1129 1111 1015 1025 1041 990 983 981 974 933 868 840 886 908 925 892 931 798 882 890 901 902 802 810 847 760 742 763 722 702 780 757 695 637 667 646 589 604 522 476 549 568 485 449 341 371 394 427 454 526 617 615 600 569 486 467 426 370 393 466 473 456 498 588 614 639 745 737 644 659 732 717 701 699 733 782 809 811 789 825 841 899 917 954 1017 1123 1128 1146 1194 1151 1117 1094 1055 1042 1024 1056 985 920 946 1009 995 1008 1031 1050 1077 1089 1142 1155 1204 1244 1301 1323 1229 1141 1093 1061 1023 1007 989 993 1065 1140 1192 1262 1300 1274 1325 1340 1404 1461 1447 1478 1460 1394 1339 1276 1207 1158 1099 1022 1006 966 924 935 894 912 965 1019 1034 1092 1139 1248 1304 1391 1475 1529 1575 1603 1713 1818 1832 1883 1887 1856 1837 1783 1693 1617 1521 1602 1596 1542 1530 1495 1431 1445 1403 1364 1326 1266 1247 1261 1148 1138 1236 1289 1357 1273 1350 1419 1477 1463 1474 1402 1338 1366 1451 1401 1363 1453 1459 1446 1337 1267 1112 1068 1058 1033 1048 1083 1053 1074 1049 1095 1136 1156 1190 1282 1260 1191 1137 1108 1063 977 943 1004 1064 1084 1104 1234 1168 1113 1106 1029 1054 979 916 888 913 934 1005 973 984 915 879 819 834 844 824 734 691 675 624 567 487 463 391 365 392 442 477 490 541 570 656 754 683 538 576 557 586 603 613 625 696 715 724 658 599 652 626 584 525 474 480 425 406 400 418 547 591 673 582 478 494 519 520 537 571 565 627 649 716 752 749 736 674 774 796 727 731 676 628 593 605 464 439 414 390 438 479 472 521 585 553 432 420 311 283 272 252 251 212 221 203 207 239 247 256 267 271 373 374 378 440 444 408 350 347 334 317 97 86 103 100 85 117 130 136 171 191 195 190 152 141 145 159 148 140 180 208 282 295 319 354 328 307 290 288 257 244 227 202 216 222 229 200 213 241 246 273 287 299 342 338 304 289 325 296 279 236 201 187 194 151 99 105 114 108 165 154 94 123 126 118 110 74 65 58 51 45 2 5 11 7 8 4 12 14 18 36 25 37 16 20 28 44 80 70 73 33 57 67 61 43 35 34 27 1 3 6 10 9 13 19 15 21 30 39 26 50 52 69 53 60 76 96 122 106 95 142 139 125 169 168 181 204 233 224 277 314 366 383 343 329 313 278 263 231 199 185 167 158 197 149 131 128 109 93 78 49 42 24 17 22 38 23 29 31 32 41 46 59 62 82 87 75 137 160 162 172 193 226 245 240 232 225 242 259 228 178 155 173 196 210 211 188 170 163 153 157 124 119 112 104 89 120 133 146 175 113 116 101 92 72 56 63 55 71 77 91 88 115 79 48 40 47 54 81 64 121 111 107 98 90 135 138 150 174 164 156 184 206 220 219 209 237 254 276 275 262 268 294 318 324 363 345 333 330 315 340 344 356 369 358 380 411 398 404 468 508 506 559 595 631 619 592 634 670 636 681 728 766 747 753 711 690 721 750 710 688 669 647 648 598 581 505 496 515 516 552 583 587 539 545 484 446 437 462 448 388 376 352 357 339 321 297 326 298 335 349 292 284 310 359 300 316 270 266 258 248 217 176 177 144 134 129 102 83 66 68 84 127 183 189 235 223 198 161 
