ei8246.tsp
cities: 8246
runs: 100
avg cost: 520445
avg steps: 10985.9
best: 457462

Best route:
2319 2405 2398 2545 2579 2647 2628 2656 2729 2416 2509 2489 2425 2381 2362 2088 1869 2099 2052 2131 1976 2082 2138 2077 2029 2056 2122 1957 2184 1945 1889 1844 1925 1870 1612 1298 1388 1771 1858 1914 2092 2315 2449 2767 2418 2520 2498 2716 2740 2707 2553 2676 2855 2837 2808 2748 2569 2653 2756 2865 2845 2709 2810 2807 2750 2856 3044 3094 2886 2914 2971 2935 2901 2938 2689 2892 2910 3009 3166 3190 3140 3050 2774 2799 2826 2948 3030 3085 3474 3548 3587 3527 3642 3863 3906 3791 3706 3809 3850 3744 3721 3818 3799 3975 3760 3628 3557 3431 3324 3473 3314 3366 3877 3846 4065 4191 4216 4164 4190 4176 4089 4099 4036 4153 4690 4160 4152 4177 4184 4207 4944 4923 5299 5192 5322 4955 4997 4727 4765 4815 4834 4897 5104 5112 5051 5154 5185 5111 5167 5130 4977 5178 5225 5095 4967 5219 5163 5206 5140 5328 5277 5351 5376 5340 5394 5370 5278 4945 5030 4948 4852 4876 4750 5291 5383 5519 5367 5364 5455 5393 5355 5244 5204 5317 5103 5171 5396 5475 5518 5581 5692 5789 5851 5985 5956 5916 5831 5852 5772 5664 5637 5715 5583 5716 5853 5900 5878 5936 5991 5899 6029 6003 6110 6169 6121 6112 6196 6210 6160 6389 6095 6111 6151 6166 6621 6745 6773 6753 6660 6713 6768 6592 6559 6503 6789 6851 6785 6918 7025 7075 7252 7214 7297 7285 7194 7206 7121 6995 6812 6786 6652 6695 6852 6804 6885 7018 7032 6715 6775 6936 6542 6225 6235 6061 6141 6262 6490 6576 6816 6879 6957 7069 7006 6872 6960 6867 7013 6877 6769 6631 6694 6844 6758 6562 6044 6118 6526 6075 6074 6081 6234 6407 6394 6279 6184 6031 6344 6119 6076 6080 6084 6055 6085 6143 6180 6376 6604 6668 6955 6810 7007 7210 7196 7231 7251 7048 6759 6740 6707 7061 7112 7409 7319 7301 7394 7280 7272 7162 7271 7311 7260 7211 7157 7065 6983 6971 6959 7028 6980 6548 6508 6677 6226 6299 6276 6886 6940 6808 6384 6283 6247 6392 6456 6096 6258 6149 6113 6128 6054 6005 6046 6022 6114 6126 6024 6062 6199 6292 6465 6826 7109 7284 7305 7330 7276 7358 7242 7213 7160 7172 7084 7181 7219 6848 6873 7099 7175 7178 7199 7415 7413 7435 7340 7350 7420 7329 7248 7051 7173 7233 7277 7410 7416 7170 6972 7388 7392 7289 7403 7315 7364 7405 7355 7361 7396 7390 7393 7401 7307 7385 7189 7083 7098 6906 6991 6747 6487 6416 6088 6025 6057 5989 5992 5969 5980 6045 6158 6123 6449 6590 6561 6607 6627 6461 6659 6340 6375 6446 6435 6566 6825 7023 7087 6970 7030 6949 7003 7049 6979 6935 6898 6902 6847 6924 6723 6846 6696 6676 6455 6411 6564 6948 7086 7190 7299 7368 7348 7234 7255 7304 7232 7627 7656 7666 7669 7635 7351 7238 7370 7373 7318 7634 7668 7661 7672 7687 7694 7675 7671 7698 7679 7639 7620 7604 7578 7581 7589 7592 7650 7662 7695 7677 7683 7709 7708 7722 7706 7660 7597 7593 7598 7583 7563 7632 7631 7689 7700 7659 7645 7617 7655 7643 7608 7636 7619 7561 7515 7507 7511 7494 7477 7475 7430 7432 7443 7309 7266 7372 7404 7302 7441 7422 7367 7354 7161 7107 7045 6954 7105 6977 6831 6705 6574 6478 6362 6137 6254 6506 6680 6334 6442 6528 6178 6310 6521 6582 6496 6624 6633 6755 6500 6737 6916 6572 6458 6547 6855 6658 6527 6801 6649 7074 6884 6944 6932 6803 6875 6865 6893 7080 6691 6762 6724 6811 6782 6833 6863 6887 6894 6998 7155 7035 7029 7119 7294 7378 7183 7337 7274 7544 7550 7554 7539 7543 7536 7546 7537 7552 7541 7522 7523 7528 7524 7503 7510 7519 7509 7490 7518 7517 7513 7501 7506 7520 7502 7428 7288 7352 7419 7433 7450 7456 7411 7371 7250 7033 6897 6708 6259 6245 6269 6224 6014 6106 6177 6069 6288 6613 6731 6827 7050 7145 7228 7313 7360 7326 7243 7381 7374 7332 7184 7325 7229 7021 6905 6992 7141 7221 7245 7317 7324 7398 7282 7120 7216 7151 7055 7192 7247 7264 7323 7265 7224 7335 7246 7283 7262 7293 7300 7256 7278 7322 7222 6706 6842 6690 6516 6646 6764 6551 6654 6710 6620 6571 6317 6312 6238 6230 6218 6290 6448 6200 6332 6355 6578 6585 6270 6229 6250 6296 6366 6433 6167 6108 6208 6469 6336 6267 6192 6140 6015 6165 6415 6409 6513 6353 6303 6391 6339 6588 6591 6546 6348 6492 6293 6476 6834 6797 6354 6558 6610 6650 6746 6858 7254 7308 7223 7290 7314 7440 7333 7279 7088 7072 6946 6917 7187 7259 7200 7113 7094 6931 6950 6733 6791 6744 6772 6866 6876 6943 7091 7031 6763 6881 7044 7180 7239 7164 7110 7149 7068 6856 6857 6815 6961 6757 6583 6638 6515 6682 6216 6511 6427 6233 6311 6326 6530 6428 6298 6719 6837 6655 6358 6778 6818 6760 6675 6720 6617 6854 6712 6626 6615 6445 6172 6261 6040 5848 5771 5811 5897 5977 5914 5876 5976 5934 6070 6260 6194 6244 6248 6071 6107 6041 5877 5830 5768 5634 5689 5663 5563 5564 5615 5391 5148 4859 4795 4681 4446 4252 4319 4456 4397 4519 4731 4768 4892 5066 5156 5221 5431 5515 5562 5453 5473 5269 5123 5200 4934 4873 4978 4921 4642 4607 4567 4506 4429 4599 4627 4581 4276 4271 4108 4121 4133 4302 4656 4787 4744 4825 4588 4846 4693 4452 4592 4487 4542 4518 4484 4463 4444 4558 4421 4299 4374 4103 4214 4378 4241 4372 4460 4305 3909 3974 3813 3717 4063 4110 4145 3978 4056 3947 4330 4398 4513 4555 4534 4623 4376 4272 4537 4674 4713 4749 4885 5247 5368 4937 4807 5116 5170 5102 5057 5454 5497 5390 5432 5166 5373 5496 5614 5659 5710 5767 5895 5975 5787 5766 5894 5829 5708 5808 5749 5786 5684 5580 5611 5709 5633 5613 5685 5560 5539 5561 5686 5726 5750 5538 5495 5401 5406 5413 5298 5472 5430 5385 5612 5493 5494 5120 4979 5218 4766 4717 4904 4969 4865 4604 4512 4872 4968 5289 5429 5184 5304 5389 5183 5287 4803 4786 4936 5236 5365 5274 5224 4984 4880 4871 5024 5233 5327 5288 5127 5137 5060 4919 5113 5207 5337 5375 5409 5279 5452 5559 5408 5088 5027 5064 5050 5017 4971 4736 4501 4517 4522 4562 4587 4486 4524 4655 4665 4776 4851 4960 5054 4993 4473 4479 4552 4504 4505 4367 4549 4418 4544 4663 4742 4591 4535 4530 4437 4442 4478 4320 4069 4118 3990 4025 4019 4027 3995 4141 4072 4569 4428 4414 4396 4306 4360 4483 4364 4441 4606 4850 5105 5162 5353 5258 5271 5344 5578 5609 5656 5682 5747 5707 5681 5683 5657 5558 5655 5784 5824 5823 5870 5910 5843 5948 5949 6009 5947 6242 6570 6531 6814 6880 7009 6921 6828 7115 6973 6912 6732 6878 6987 6765 6623 6819 6729 6507 6387 6630 6443 6337 6434 6309 6171 6201 6168 6099 6100 6237 6557 6563 6595 6374 6703 6964 6981 6845 7092 6813 6874 6941 6640 6553 6423 6738 6679 6806 6656 6418 6147 6026 5971 6089 6289 6692 6748 6939 6994 7202 7306 7342 7328 7363 7369 7261 7220 7215 7258 7275 7291 7241 7267 7273 7195 7158 7104 6962 7095 7085 7012 6937 6938 6942 6838 6783 6471 6647 6678 6662 6497 6629 6606 6734 6835 6716 6963 6908 6930 6984 6800 7020 6968 7168 7204 7064 7127 6774 6914 6988 6709 6997 6926 6890 7067 7057 7142 7320 7166 7205 7077 7010 6919 6978 7179 7143 7123 7135 7122 7191 7150 7303 7096 7359 7375 7188 7237 7281 7339 7406 7402 7455 7453 7467 7454 7240 7336 7345 7386 7399 7427 7463 7269 7268 7236 7163 7102 7182 7111 7016 7063 7034 6966 6993 6985 7152 7052 7019 6555 6671 6611 6683 6550 6549 6401 6390 6565 6436 6360 6263 6120 6032 6092 6182 6145 6377 6078 6002 6086 5888 5820 5817 5821 5837 5928 5922 5968 6021 6000 6051 5970 5965 6016 6001 5990 5919 5907 5840 5781 5719 5761 5777 5757 5884 5816 5822 5866 5859 5839 5793 5717 5621 5639 5603 5534 5525 5528 5569 5463 4949 4961 4793 4963 5068 4917 5126 5055 5141 4946 5078 5216 5176 4939 4723 4743 4574 4697 4958 5018 5181 5215 5363 5414 5512 5437 5416 5418 5342 5457 5444 5483 5505 5510 5576 5548 5595 5568 5625 5643 5648 5675 5553 5571 5627 5601 5503 5480 5421 5300 5240 5254 5135 5284 4887 4732 4630 4672 4842 4784 4826 4778 4722 4565 4568 4667 4529 4610 4738 4679 4753 5211 5251 5235 5131 4696 4792 4546 4288 4165 4343 4206 4407 4431 4236 4355 4424 4401 4410 4433 4445 4485 4466 4477 4329 4194 4274 4171 3954 3884 3921 3889 3961 4080 4059 3854 3774 3510 3318 3272 3104 3035 2959 3003 3066 2977 2946 3018 2843 3005 3198 3250 3157 3349 3362 3508 3429 3525 3689 3732 3907 4010 3784 3770 3903 3997 3942 4096 3937 4023 4199 4147 4246 3989 3765 3795 3875 3913 3998 4008 3848 3810 3953 4007 4122 4125 3878 4054 4166 4300 4332 4471 4761 4673 4848 4797 4841 4910 5133 5005 5065 5440 5465 5423 5422 5500 5532 5459 5504 5552 5602 5593 5598 5589 5619 5591 5384 5350 5019 4947 4909 4895 5212 5386 5533 5551 5446 5374 5255 5164 4974 4942 4914 5004 4985 5003 4748 4905 4702 4425 4453 4440 4559 4391 4132 4351 4289 3858 3664 3823 3746 3753 3485 3463 3370 3354 3357 3547 3459 3408 3554 3511 3219 3284 3275 3627 3672 3618 3550 3624 3311 3411 3481 3494 3563 3654 3534 3410 3447 3443 3345 3358 3497 3437 3540 3874 3782 3681 3639 3375 3234 3253 3125 3144 3039 2962 3064 3100 3124 3489 3591 3748 3643 3666 3651 3592 3661 3471 3608 3659 3775 3682 3663 3607 3576 3578 3320 3274 3132 3160 3082 3058 3136 3115 3049 3052 2867 2823 2719 2752 2839 2595 2698 2702 2677 2591 2522 2395 2290 2453 2514 2633 2618 2539 2613 2563 2751 2749 2783 2830 3057 3068 2863 2771 2875 2580 2678 2572 2513 2419 2394 2348 2457 2436 2291 2239 2532 2594 2549 2474 2478 2479 2696 2658 2627 2533 2500 2359 2556 2528 2605 2862 2954 3231 3178 3286 3220 3103 3042 3076 3075 2956 3029 2765 2937 2804 2815 2796 2706 2818 2744 2763 2657 2598 2623 2557 2570 2347 2360 2189 2017 1936 2194 1959 2213 2295 2378 2433 2505 2390 2451 2372 2079 2098 2135 2228 2218 2026 2083 2206 2159 2224 2332 2370 2165 2215 1838 1867 1987 2176 2309 2506 2511 2637 2529 2263 2275 2227 2406 2384 2358 2325 2350 2465 2310 2292 2054 2004 1839 1700 1847 1928 1944 1845 2095 1978 1744 1492 1570 1556 1360 1427 1555 1604 1506 1743 1676 1481 1763 1647 1548 1637 1567 1600 1551 1624 1553 1524 1611 1413 1426 1440 1387 1664 1563 1703 1791 1729 1813 2075 1926 1655 1606 1751 1757 1875 1939 1890 1841 2038 2019 2067 2300 2260 2314 1899 1723 1587 1365 1652 1353 1450 1316 1268 1176 1322 1361 1747 1896 1948 1881 1878 1827 1842 1834 2042 1882 1754 1442 1180 1487 1490 1539 1523 1626 1420 1429 1476 1454 1679 1512 1409 1515 1648 1594 1534 1683 1598 1511 1455 1245 1295 1200 1352 1372 1226 1663 1960 1980 1917 2025 2009 2141 1903 1916 2073 1810 1814 1635 1610 1441 1410 1219 1517 1537 1443 1835 1742 1784 1705 1686 1749 1851 1776 1795 1886 1911 1932 2120 2119 1942 1857 1956 2126 2208 2236 2355 2437 2589 2490 2610 2495 2301 2078 2087 2071 2115 2166 2337 2281 2209 2036 2081 2049 2040 2034 2021 1787 1793 1444 1777 1840 2002 2041 2155 1964 2093 2114 1949 1898 2102 2192 2186 2232 2343 2258 2219 2277 2379 2410 2472 2541 2517 2668 2713 2745 2878 2685 2611 2438 2738 2809 2939 2941 2958 3080 3095 3188 3135 3069 2961 3206 3243 3305 3310 3187 3162 3161 3260 3105 3158 3184 3230 3261 3276 3421 3415 3389 3346 3256 3137 3193 3248 3217 3337 3249 3330 3390 3436 3391 3594 3426 3705 3758 3469 3546 3637 3573 3649 3655 3434 3302 3401 3380 3227 3214 3093 3102 3209 3202 3245 3313 3340 3204 3244 3060 3023 2973 2949 3007 2924 2913 2890 2797 2466 2587 2536 2559 2421 2349 2377 2271 2118 2101 1927 1979 1879 1954 2060 1904 1741 1632 1568 1526 1646 1546 1432 1667 1408 1467 1527 1782 1934 1913 1905 2061 2076 2033 1998 2070 1752 1852 1636 1720 1628 1549 1582 1877 1799 1727 1682 1855 1850 1941 2090 2145 2234 2335 2562 2492 2245 2386 2551 2375 2323 2426 2464 2515 2388 2584 2650 2555 2682 2493 2600 2612 2402 2467 2560 2516 2483 2524 2643 2652 2331 2254 2187 2264 2130 2163 2313 2403 2480 2599 2615 2816 2920 2844 2922 2968 2889 2900 2997 2972 3010 3108 3177 3365 3368 3281 3298 3151 3171 3043 3074 3316 3373 3268 3229 3241 3317 3291 3506 3427 3454 3397 3425 3570 3625 3574 3652 3738 3640 3669 3852 3982 3871 3987 3922 3808 4035 4021 3956 3912 3800 3958 3788 3740 3621 3564 3735 3701 3653 3845 3646 3755 3711 3676 3650 3399 3462 3513 3780 3880 3842 3988 4077 4011 3881 4119 4074 3876 4126 4662 4868 4754 4953 4965 4918 4593 4721 4514 4635 4538 4510 4820 4705 4666 4926 4603 4467 4489 4609 4650 4533 4773 4664 4566 4596 4788 4798 4733 4878 5052 5302 5307 5333 5174 5108 5296 5345 5318 5266 5197 5238 5265 5358 5138 5270 5410 5281 5226 5260 4858 4799 4800 4869 5083 5098 5314 5290 5362 5403 5282 5246 5076 4832 4950 5395 5438 5387 5448 5161 5213 5016 5339 5227 5419 5248 5315 5346 5445 5159 5106 5036 5160 4875 5011 4676 4472 4468 4438 4511 4806 4648 4547 4600 4575 4755 4613 4782 5150 5208 5201 5209 5338 5012 4840 5182 5074 5062 4706 4730 4564 4408 4339 4384 4173 4290 4015 3943 3756 3796 3883 3979 4193 4034 3985 4084 3905 4232 4117 4211 4067 3897 3662 3599 3667 3536 3417 3512 3695 3684 3749 3820 3771 3600 3300 3255 3098 3033 2918 2926 3034 2950 2793 2846 2967 3153 3259 3278 3232 3019 3011 3053 3041 3026 2792 2998 3048 3025 3356 3236 3191 3446 3341 3180 3403 3242 3271 3342 3315 3579 3714 3702 3336 3438 3432 3464 3460 3821 3736 3941 3815 3712 3657 3619 3645 3614 3392 3453 3327 3293 3306 3269 3265 3295 3192 3168 3186 3440 3496 3559 3405 3726 3690 3529 3419 3833 3734 3514 3556 3486 3839 3891 3948 3918 3993 3893 3761 3433 3351 3507 3382 3283 3169 3109 3159 3189 3277 3450 3407 3457 3490 3595 3745 3518 3328 3299 3479 3237 3179 3181 3325 3279 3289 3379 3118 3116 3381 3173 3130 3061 2989 2964 3077 3055 2908 2921 2701 2932 3288 3201 3359 3532 3435 3331 2990 2936 2943 2821 2768 2851 2868 2903 2870 2942 2803 2802 2727 2694 2720 2795 2760 2764 2849 2894 3012 3091 3021 3054 3046 2866 2832 2787 2739 2755 2710 2638 2546 2622 2525 2687 2762 2909 2929 2631 2578 2660 2531 2534 2666 2634 2481 2427 2371 2287 2242 2445 2365 2270 2326 1950 2132 2147 2241 2226 2183 2305 2170 2134 2050 1908 1874 1730 1801 1760 1891 1716 1169 1331 1241 1196 1069 1102 955 1072 967 982 936 860 857 704 550 417 630 470 512 421 458 441 402 375 364 471 660 610 561 700 447 504 422 368 543 657 720 544 578 638 548 387 424 413 281 303 312 407 385 291 332 269 218 230 255 238 182 265 260 214 192 132 280 323 410 377 357 297 446 484 448 539 462 728 747 817 826 829 711 710 690 721 822 753 830 1038 1110 1188 1438 1505 1571 1644 1689 1797 1823 1728 1643 1650 1585 1334 1399 1733 1740 1712 1800 1638 1920 1902 1966 2053 2128 1775 1888 1815 1690 1509 1131 1051 1071 1224 1428 1257 1280 1457 1471 1240 1147 1554 1816 1692 1258 1497 1458 1520 1528 1601 1645 1246 1039 1021 1125 1119 1488 1525 1672 1562 1418 1150 994 1012 833 791 1001 930 759 773 859 815 1000 1116 864 987 923 914 1046 1088 1090 911 929 831 832 871 976 962 1100 963 1107 1210 1336 1132 1197 1091 1375 1335 1368 1239 1040 1018 1082 1037 1073 1256 1195 1187 1045 968 885 999 1166 1103 1186 960 1036 1097 1079 961 991 927 858 873 867 904 862 827 790 808 783 640 694 709 750 687 804 689 616 556 399 327 250 186 179 161 166 189 183 223 235 143 147 351 306 346 514 579 580 785 669 648 897 896 852 846 942 1080 1159 1374 1302 1359 1249 1209 1362 1171 1235 1275 1535 1589 1699 1671 1785 1654 1633 1739 1649 1437 1702 1666 1540 1625 1717 1862 2037 2136 2156 2188 2137 2283 2339 2229 2069 2006 1829 1803 1670 1653 1513 1770 1804 1778 1510 1532 1616 1533 1433 1319 1288 1333 1398 1177 1185 1390 1491 1543 1518 1503 1466 1579 1599 1452 1504 1507 1677 1806 1848 1822 1943 2074 1947 2057 2125 2212 2252 2251 2411 2468 2376 2547 2597 2629 2841 2882 2789 2726 2429 2486 2392 2554 2596 2654 2834 2848 2923 2978 3038 3088 3040 2947 3114 3031 3213 3262 3294 3084 3113 3079 3063 3078 3111 3129 3208 3154 3210 3240 3552 3402 3222 3221 3477 3581 3428 3445 3680 3613 3741 3728 3553 3475 3361 3731 3822 3865 4017 4136 4052 3692 3691 3776 4134 4268 4503 4578 4539 4443 4358 4380 4260 4240 4312 4060 4192 4020 4009 4137 4181 4435 4356 4434 4598 4741 4756 4661 4703 4759 5158 5090 5193 5273 5336 5006 4907 5053 5179 4995 4952 4959 4966 4769 4771 4823 4687 4645 4507 4333 4235 4427 4383 4243 4375 4543 4494 4540 4586 4461 4625 4677 4611 4700 4620 4735 4775 4801 4898 4772 5042 4711 4643 4829 4920 5169 5263 5427 5311 5119 5026 5082 4986 4982 4824 4802 5144 5329 5415 5217 5335 5451 5378 5428 5093 4877 5142 5470 5471 5579 5658 5827 5844 5953 6013 6066 6425 6256 6214 6240 6533 6291 6370 6371 6272 6164 6308 6138 6039 5893 5933 5828 5807 5785 5845 5874 5826 5746 5706 5654 5725 5705 5680 5608 5631 5557 5629 5652 5653 5678 5873 5911 5872 5724 5630 5491 5537 5490 5536 5489 5257 5063 5059 5122 4927 4729 4388 4366 4636 4854 4550 4585 4714 4751 4508 4628 4455 4412 4258 4042 4115 4022 4183 4250 4220 4404 4336 4335 4310 4209 4140 4280 4048 4195 3930 3857 3968 4039 4124 4342 4127 4175 4163 4168 4120 4068 4090 3873 3887 3972 4064 3722 3849 3797 3853 3976 3660 3811 3825 3778 3697 3687 3413 3617 3376 3569 3605 3551 3538 3319 3303 3233 3225 3333 3442 3378 3523 3739 3785 4038 3970 4078 4112 4104 4032 3879 4014 4037 3898 3656 3855 3916 3962 3934 3828 3612 3674 3671 3555 3610 3519 3482 3412 3509 3593 3713 3945 3999 4253 4254 4149 3841 3984 4029 4148 4006 3957 4026 4348 4464 4255 4373 4313 4454 4228 4092 3966 3710 3505 3566 3644 3952 3817 3787 3585 3694 3718 3720 3798 4002 4102 4049 3980 3767 3492 3752 3630 3700 3596 3449 3174 3270 3321 3398 3467 3384 3541 3441 3524 3301 3112 3203 3083 3107 3175 3047 3128 3008 2753 2780 2733 2776 2960 2827 3032 2873 2876 2794 2854 2608 2604 2667 2736 2811 2828 2940 3017 3013 3024 2912 2898 2934 3092 3045 3146 2951 2992 2859 2814 2927 2979 2955 2850 2800 2885 2902 3015 3037 2899 2881 2693 2621 2540 2772 2980 3099 2966 2732 2730 2391 2523 2718 2630 2782 2838 2930 2887 2842 2602 2651 2766 2758 2735 2662 2672 2731 2777 2679 2852 2879 2895 2905 2931 3016 2853 2641 2646 2601 2632 2683 2582 2688 2648 2537 2455 2477 2401 2302 2317 2269 2181 1906 1618 1493 1303 1516 1680 1753 1711 1698 1558 1595 1583 1622 1901 1762 1786 1701 1828 1861 1880 1735 1623 1620 1820 1768 1769 1688 1707 1825 1805 1849 1659 1658 1725 1710 1656 1895 2112 2001 1985 2341 2512 2444 2214 2311 2217 2085 2278 2190 2104 2231 2191 2111 2048 1995 1955 2117 2255 2140 2072 2020 1977 1909 2178 2363 2485 2561 2193 2173 2250 2352 2387 2202 2408 2422 2373 2225 2207 2108 2096 2031 1864 1482 1544 1843 1789 1557 1561 1552 1651 1499 1538 1621 1422 1354 1215 1206 1324 1320 1392 1615 1498 1284 1221 1278 1242 1489 1292 1586 1220 1211 1281 1296 1377 1349 1380 1465 1373 1449 1367 1327 1370 1307 1230 1271 1173 1291 1479 1483 1286 1343 1231 1124 1163 951 939 893 876 953 919 1081 1020 880 848 889 938 1011 997 978 1217 1265 1181 1448 1238 1317 1318 1272 1096 959 877 799 770 806 878 1035 1013 975 1382 1607 1660 1811 1761 1876 1958 2175 2330 2635 2575 2590 2454 2443 2297 2380 2345 2484 2417 2274 2160 2127 1937 1885 1772 1732 1709 1201 1305 1203 1184 1130 1062 1167 1243 1109 1250 1330 1397 1469 1411 1439 1802 1868 1994 1975 1918 2055 1788 1381 1396 1502 1678 1719 1721 1873 1990 2051 2080 1953 1988 2121 2303 2431 2473 2586 2508 2414 2265 2382 2642 2801 2833 2893 2784 2860 2874 2778 2869 2722 2906 2819 2619 2624 2692 2754 2700 2617 2616 2571 2548 2759 2820 2825 3133 2919 3086 2993 3059 2976 2884 2952 3238 3141 3106 3020 3070 3056 2703 2806 2991 2969 2916 3228 3119 3155 3247 3121 2835 2798 2673 2690 2888 2659 2680 2791 2564 2501 2462 2344 2293 2100 1893 1930 2008 2106 2321 2203 2246 2211 2143 1759 1681 1715 1865 1961 1983 1910 1737 1796 1860 1824 1726 1722 1389 1174 903 801 891 1066 937 1078 1386 1472 1706 1854 1836 2149 2150 2222 1931 1892 1808 1919 1306 1494 1485 1486 1470 1269 1344 1310 1496 1590 1687 1378 1213 1170 1212 1254 1127 1154 1152 949 1044 986 1346 1027 1105 1086 1070 950 921 941 881 874 803 735 685 651 499 428 435 574 609 608 572 540 650 575 764 845 820 861 870 900 814 856 837 971 907 777 475 532 653 792 641 607 566 739 738 836 682 730 812 816 684 740 853 895 779 719 807 828 872 1014 922 992 998 842 884 1030 928 898 932 952 838 645 629 680 577 601 500 551 507 433 465 336 285 309 264 215 253 274 308 353 367 451 497 597 533 643 503 542 386 384 395 403 445 596 697 772 855 1016 909 850 746 906 887 755 805 784 835 883 744 771 849 969 910 970 1060 1075 1122 1421 1052 958 1118 1315 1355 1253 1115 1059 1299 1032 957 1043 996 1101 1143 1164 1480 1285 1395 1423 1541 1631 1704 1750 1780 1807 1812 1738 1773 1897 1993 1982 2016 1984 2045 2035 2237 2259 2256 2240 2285 2324 2585 2663 2385 2286 2164 2116 2154 2182 2389 2711 2872 2963 2965 3096 3123 2994 2915 2891 3087 3323 3472 3626 3683 3487 3520 3539 3543 3730 3773 3843 3830 3750 3615 3838 3951 3894 3805 3759 3670 3360 3400 3531 3634 3766 3923 4055 4016 4179 4156 3859 3792 3890 3931 3964 4040 4095 4075 4178 3910 3769 3737 3501 3406 3339 3498 3577 3675 3824 3870 3829 3908 3803 3580 3733 3802 3685 3623 3374 3444 3493 3452 3677 3719 3586 3528 3422 3329 3478 3757 3631 3588 3641 3668 3597 3568 3707 3635 3835 4070 3781 3834 3965 4204 4201 4138 4430 4287 4322 4394 4439 4379 4222 3991 4013 3917 4245 4324 4323 4326 4100 4130 4114 4197 4233 4399 4451 4448 4382 4377 4298 4311 4291 4304 4393 4314 4155 4202 4296 4392 4111 4030 3938 4212 3977 3856 3836 3928 3940 3971 4259 4189 4265 4354 4370 4476 4689 4618 4724 4816 4814 4757 4811 4991 5194 5009 5256 5139 4913 5092 5175 5482 5447 5507 5191 5079 4864 4837 4525 4523 4502 4459 4509 4381 4362 4411 4344 4583 4285 4113 4244 4369 4458 4363 4474 4491 4327 4277 4420 5015 5085 4932 4916 4964 5101 5021 5155 5417 5319 5458 5477 5531 5484 5606 5607 5554 5464 5502 5530 5596 5645 5723 5800 5756 5814 5838 5863 6058 6322 6284 6539 6440 6541 6505 6451 6519 6150 6369 6188 6402 6220 6159 6050 5941 5902 5923 5908 5818 5834 5841 5759 5758 5867 5862 5869 5943 5996 6170 6144 6205 6295 6463 6321 6628 6457 6636 6612 6520 6410 6198 6430 6754 6809 7040 7118 7022 6904 7138 7073 6996 6889 6776 6882 6967 7089 6989 6947 6672 6849 6702 6725 6907 6512 6282 6222 6197 6206 5983 6077 5962 6275 6330 6498 6400 6593 6718 6685 6320 6379 6482 6333 6441 6466 6419 6380 6667 6586 6608 6398 6494 6187 6157 6130 5997 5939 5924 6006 5961 6122 6125 6153 6271 6420 6545 6509 6594 6535 6274 5967 6008 5945 5861 5883 5942 5836 5778 5803 5868 5887 5964 5940 5882 5993 5966 6319 6554 6393 6454 6491 6424 6395 6579 6609 6840 6767 6722 6761 6580 6635 6859 6681 6534 6385 6277 6047 5881 5721 5736 5734 5701 5673 5642 5668 5626 5670 5698 5695 5763 5762 5741 5799 5720 5700 5697 5527 5462 5285 5143 5107 5037 4819 5008 4849 4844 4874 4888 4882 4762 4720 4822 4789 4973 5073 5349 5466 5434 5443 5147 5245 5202 5295 5308 5479 5513 5622 5597 5509 5644 5672 5740 5835 5780 5699 5646 5737 5676 5797 5702 5671 5624 5722 5735 5739 5641 5620 5628 5524 5460 5575 5703 5674 5535 5555 5592 5594 5549 5506 5398 5320 5334 5286 5420 5400 5461 5523 5546 5529 5412 5486 5203 5405 5231 5109 4740 4774 5306 5325 5242 5038 4943 5020 5034 4935 4861 4597 4652 4480 4515 4526 4385 4303 4498 4387 4718 4615 4779 4817 4763 4940 4827 4668 4493 4554 4739 4584 4499 4624 4785 5067 5252 5435 5343 5310 5294 5356 5084 5241 5117 5013 5097 5071 4930 4894 4954 4901 4883 4863 4707 4654 4470 4692 4571 4582 4541 4527 4490 4269 4162 4215 4386 4685 4790 4594 4715 4573 4698 4576 4492 4590 4833 4911 4836 5056 5032 4857 4691 5045 5157 5086 4951 4725 4900 5149 5040 4999 4847 5014 4990 5069 4708 4669 4870 4970 4686 4906 4577 4767 4716 4746 5029 4983 5407 5371 4912 4812 4682 4881 4629 4292 4267 4223 4174 4041 4062 3837 3804 3955 3783 3816 3902 3861 3929 3899 4004 4003 4123 4217 4346 4482 4601 4465 4709 5080 5297 5326 5220 5132 5115 5172 5094 5309 5243 5357 5189 5377 5449 5404 5399 5000 4956 4828 4980 5223 5468 5679 5745 5931 6101 6264 6473 6474 6300 6219 6063 6064 6102 6010 5930 5825 5744 5677 5556 5783 5743 5704 5587 5570 5522 5442 5048 5022 5262 5352 5436 5253 4992 5134 5049 4899 4764 4845 4688 5010 5081 4838 4893 4896 5035 5096 5372 5426 5450 5165 4903 4975 4981 5025 5041 5070 5321 5425 5303 5381 5492 5514 5469 5388 5360 5268 5292 4809 4680 4639 4889 4551 4462 4426 4405 4536 4497 4595 4297 4139 3992 4422 4278 4087 4091 4224 4266 3963 4105 4340 4293 4083 4188 4318 4047 3483 3416 3292 3414 3326 3458 3287 3257 3344 3567 3693 3647 3869 4043 4024 4061 3826 3919 4213 4247 4229 4270 4350 4389 4415 4419 4402 4180 4129 4368 4449 4308 4200 4257 4371 4359 4423 4264 4186 4400 4328 4641 4621 4683 4520 4450 4602 4794 4710 4737 4879 5039 5347 5124 5249 5214 5382 5280 5195 5100 5001 5047 4695 4616 4821 4712 4637 4556 4694 4908 4884 4783 4747 5002 5033 5313 5125 5129 5196 5402 5348 5121 4928 5151 5198 5188 5323 5361 5316 5293 5433 5369 5145 5237 5229 5110 5177 5072 4987 5075 4996 4699 5046 5099 5366 5499 5541 4976 4651 4657 4447 4561 4532 4334 4263 4294 4553 4500 4357 4734 4890 4804 4938 4962 5058 5007 4649 4403 4172 4545 4678 4589 4481 4614 4612 4557 4469 4521 4406 4409 4528 4531 4605 4780 5061 5187 5234 5330 5276 5261 5476 5392 5146 5186 5232 4856 4831 4758 4670 4728 4704 4830 4933 4867 4726 4805 4891 4902 4791 5128 4813 4915 5275 5380 5301 5359 5264 5354 5267 5272 5230 5205 5136 4886 4862 4860 4843 4818 5023 5089 5153 5190 5152 5173 5324 5397 5517 5565 5711 5810 5769 5788 5661 5687 5660 5727 5809 5896 6372 6483 6255 6413 6217 6460 6450 6179 6294 6335 6301 6639 6600 6750 6922 6958 6923 6788 6730 6975 6951 6796 6915 6976 6862 6934 7071 7015 7053 7047 7197 7310 7437 7460 7462 7464 7470 7452 7473 7466 7408 7423 7439 7446 7424 7418 7434 7421 7407 7380 7471 7491 7505 7498 7479 7492 7469 7500 7472 7488 7487 7504 7508 7516 7512 7557 7514 7495 7485 7482 7451 7461 7448 7499 7574 7613 7596 7611 7629 7622 7576 7588 7586 7625 7599 7568 7665 7728 7774 7783 7798 7800 7936 7896 7926 7934 7921 7852 7867 7848 7851 7881 7915 7892 7938 7933 7846 7955 7842 7775 7739 7765 7810 7764 7771 7794 7844 7827 7819 7743 7685 7778 7779 7757 7785 7829 7862 7880 7930 7919 7914 7807 7869 8048 8067 8018 8029 8040 8082 8074 7982 8035 8032 8086 8073 8077 8193 8201 8112 8141 8131 8105 8164 8151 8071 8072 8114 8158 8054 8068 8081 8111 8130 8124 8145 8178 8174 8153 8163 8121 8123 8183 8161 8144 8196 8128 8129 8206 8208 8133 8191 8100 8097 8052 8037 8033 8137 8134 8172 8177 8125 8115 8095 8091 8057 8023 7981 7966 7971 7998 8011 8014 7973 7876 7858 7864 7879 7822 7821 7780 7726 7748 7747 7762 7758 7751 7707 7725 7752 7801 7790 7832 7835 7843 7826 7845 7860 7841 7812 7834 7811 7753 7732 7713 7731 7736 7773 7784 7781 7717 7761 7793 7705 7746 7756 7718 7702 7714 7830 7824 7767 7786 7809 7755 7768 7738 7754 7684 7688 7691 7721 7701 7741 7763 7818 7861 7854 7883 7916 7895 7901 7884 7850 7866 7983 7950 7943 7989 7979 7952 7945 7920 7859 7877 7847 7825 7873 7868 7908 7900 7932 7949 7974 7969 7957 7951 7985 8059 8093 8070 8098 8126 8039 8031 8030 7970 8127 8106 8146 8096 8076 8140 8138 8103 8044 8056 8055 8118 8088 8084 8058 8020 8066 8051 8053 8045 8046 7980 8078 8047 7965 7964 7987 8019 8026 8034 8012 7923 7872 7817 7750 7820 7823 7791 7831 7792 7737 7797 7715 7719 7664 7693 7696 7703 7681 7692 7710 7724 7690 7649 7577 7585 7567 7582 7575 7609 7587 7633 7658 7654 7641 7697 7760 7734 7716 7759 7796 7745 7772 7789 7788 7804 7704 7686 7673 7648 7670 7646 7626 7594 7612 7606 7647 7680 7623 7640 7603 7591 7521 7529 7545 7547 7530 7538 7527 7540 7525 7531 7534 7571 7565 7614 7616 7651 7642 7610 7637 7621 7630 7678 7618 7653 7652 7682 7766 7740 7776 7795 7947 7961 8000 7924 7972 7939 7956 7905 7898 7886 7890 7828 7730 7735 7727 7674 7624 7584 7580 7600 7615 7638 7628 7657 7676 7663 7566 7564 7558 7551 7542 7535 7533 7556 7549 7562 7548 7559 7560 7526 7484 7474 7436 7362 7387 7343 7207 7066 7116 7132 7209 7298 7156 7128 6982 7070 7042 7198 7218 7153 7338 7334 7365 7347 7442 7383 7257 7357 7263 7389 7457 7449 7481 7476 7468 7496 7497 7532 7553 7601 7570 7572 7595 7590 7607 7605 7573 7569 7644 7602 7667 7833 7799 7769 7723 7749 7555 7579 7729 7699 7720 7711 7782 7770 7805 7787 7836 7837 7815 7839 7853 7863 7893 7865 7931 7990 7958 7907 7918 7929 7928 7948 7885 7899 7871 7888 7962 7940 7912 7875 7903 7857 7922 7878 7814 7840 7802 7777 7712 7744 7742 7733 7806 7808 7803 7855 7887 7856 7874 7838 7816 7813 7849 7913 7882 7894 7897 7889 7960 7935 7995 7996 8008 8010 7984 7994 7937 7953 7954 7977 8002 8015 8006 8007 7941 7906 7902 7904 7891 7946 7999 7992 7963 7944 7910 7942 7925 7870 7959 7986 8001 7988 8022 8017 8004 7997 7978 7967 7927 7911 7917 7909 7993 7975 7968 8024 8003 7976 8027 8132 8104 8109 8087 8148 8160 8226 8236 8229 8227 8223 8245 8239 8221 8219 8234 8217 8224 8122 8149 8204 8205 8228 8198 8170 8180 8169 8185 8184 8152 8142 8192 8168 8159 8107 8117 8162 8189 8108 8062 8092 8186 8207 8197 8187 8171 8233 8238 8235 8216 8176 8154 8209 8232 8242 8243 8231 8225 8222 8213 8230 8237 8214 8241 8240 8244 8246 8220 8181 8173 8194 8155 8165 8210 8218 8202 8195 8182 8199 8203 8139 8102 8063 8043 8050 8041 8028 8079 8113 8099 8120 8065 8013 8064 8147 8150 8110 8143 8156 8175 8190 8211 8215 8200 8179 8119 8101 8083 8166 8157 8136 8060 8090 8009 8094 8049 8085 8036 8075 8025 8061 8080 8089 8042 8038 8212 8188 8167 8135 8116 8069 8021 8005 8016 7991 7493 7478 7429 7349 7377 7438 7445 7292 7321 7382 7414 7465 7458 7447 7426 7480 7486 7483 7489 7459 7397 7327 7444 7425 7431 7353 7316 7249 7079 6910 6567 6365 6307 6481 6221 6347 6305 6183 5946 5944 5994 6131 6246 6185 6316 6253 6470 6467 6386 6447 6589 6485 6286 6408 6382 6556 6543 6648 6700 6741 6632 6464 6544 6664 6616 6601 6836 6911 6891 6953 6986 7103 7062 7004 6929 6883 6770 6684 6807 6704 6223 6082 6004 6035 5889 5806 5742 5760 5718 5880 5815 5842 5963 6034 5903 5860 5926 6020 6098 6156 6189 6132 6154 6060 5960 5909 5782 5801 5805 5779 5738 5696 5795 5819 5764 5904 5864 5921 6033 6146 6212 6314 6302 6381 6403 6581 6493 6323 6499 6342 6373 6605 6495 6097 6155 6152 5972 5938 5885 5929 6252 6349 6488 6432 6306 6324 6273 6285 6361 6536 6698 6657 6618 6207 6351 6257 6315 6913 6749 6790 6777 6832 6925 6637 6766 6869 6669 6920 7001 6820 6787 6614 6357 6350 6161 6241 6173 6325 6174 6412 6265 5950 5871 5973 6036 6134 6133 6598 6817 6742 6830 6665 6653 6568 6388 6597 6367 6502 6537 6798 6699 6721 6771 6472 6603 6693 6735 6781 6892 6717 6701 6903 6900 6841 7041 7130 7026 7027 7059 6945 7090 7125 7154 7008 6793 6739 6452 6278 6011 6135 6202 6203 6037 6211 6414 6363 6297 6642 6532 6518 6522 6584 6268 6313 6421 6232 6038 6012 5890 5912 5891 5932 5951 5952 5913 5875 5748 5610 5632 5765 5892 6104 6176 6338 6480 6569 6651 6666 6673 6538 6602 6213 6175 6209 6429 6356 6468 6417 6475 6406 6523 6577 6843 7101 7148 7176 7217 7036 7136 7185 7043 7167 7100 6896 6839 6822 6895 6990 7024 7169 7093 7140 7054 7014 7108 7126 7193 7114 7056 7226 7212 6625 6444 6439 6304 6405 6318 6266 6215 6251 6378 6231 6437 6459 6573 6644 6641 6560 6743 6871 6779 6969 7002 6860 6829 6687 6784 6599 6736 6479 6587 6688 6453 6345 6364 6190 6249 6136 6065 6103 6191 6243 6331 6510 6404 6643 6751 6850 6821 6805 7131 7060 7144 6853 6689 6928 6999 6974 6727 6714 6661 6514 6674 6824 6711 6540 6933 6956 6728 6780 6645 6619 6861 6726 6756 6823 6686 6794 6927 6799 6752 6663 6529 6462 6352 6228 6181 6139 6067 5974 6105 6068 5954 5846 5847 5662 5688 5728 5770 5690 5729 5713 5635 5691 5730 5751 5636 5542 5582 5638 5693 5566 5732 5616 5617 5585 5584 5544 5775 5774 5854 5755 5832 5790 5754 5733 5567 5543 5520 5222 5199 5331 4808 4770 4796 4580 4631 5087 4563 4632 4671 4684 4719 4638 4701 4924 4835 4810 4839 4745 4634 4094 4185 4128 4198 4225 4231 4275 4998 5305 5411 5239 5647 5572 5669 5577 5441 5478 5521 5550 5573 5574 5511 5379 5508 5501 5588 5796 5605 5487 5312 5424 5485 5488 5526 5467 5547 5623 5651 5590 5618 5640 5667 5776 5804 5858 5865 5906 5920 5905 5925 5927 5794 5802 5798 5650 5604 5586 5600 5649 5599 5481 5439 5168 5283 5341 4929 5028 4988 4972 4994 4941 4781 4931 4760 5044 5250 5091 5114 4925 4633 4660 4284 4619 4853 4626 4608 5043 5180 5456 5259 5118 5077 5694 5666 5665 5545 5791 5833 5901 5879 5792 5857 5886 5918 5856 5855 6018 5937 5959 5987 5958 5981 6079 6087 6007 5979 6052 6328 6426 6346 6236 6383 6525 6634 6802 6792 6697 6596 6489 6901 7081 6965 7046 7078 7133 7201 7203 7171 7165 7037 7227 7379 7417 7344 7412 7400 7356 7391 7384 7286 7296 7137 7117 7287 7346 7331 7395 7376 7208 7225 7270 7253 7235 7295 7106 7139 7082 7147 7174 7230 7097 7017 6952 6909 6888 6899 7011 7124 7146 7058 7005 6864 7076 7129 7038 7134 7039 7159 7244 7312 7341 7366 7186 7177 7000 6795 6501 6193 6142 6227 6195 6280 6524 6343 6431 6397 6359 6368 6090 6115 6124 6093 6023 5995 5988 6048 5986 6117 6186 6329 6477 6870 6868 6622 6109 6129 6091 6162 6327 6575 6396 6552 6484 6517 6504 6486 6287 6422 6204 6281 6239 6670 6438 6399 6148 6127 6083 6056 6341 6163 6094 6116 6049 5998 6019 6028 6053 6027 5982 6043 6059 5999 5957 6017 6073 6030 5984 6042 6072 5978 5935 5849 5812 5850 5898 5915 5955 5917 5773 5714 5753 5813 5731 5752 5712 5540 5332 5228 4570 4752 4516 4475 4205 3994 4273 4286 4196 4234 4167 4169 4093 4154 3779 3724 3665 3725 3882 3763 3819 3920 3638 3352 3561 3377 3273 3309 3466 3424 3545 3716 3603 3565 3658 3688 3851 3602 3794 3709 3522 3517 3465 3673 3549 3969 4050 3981 4073 3925 4051 4161 4131 4219 4239 4044 3742 3633 3480 3572 3367 3347 3847 3864 3911 4012 3868 3698 3582 3456 3387 3396 3500 3197 2717 2432 2645 2871 2790 2785 2770 2829 2985 3028 3071 3065 3216 3332 3285 3258 3212 3134 3195 2953 2907 3062 2897 2847 2986 3167 3001 3014 2684 2542 2504 2450 2742 2987 2813 2831 2746 2574 2351 2369 2307 2353 2306 1461 1262 1192 1140 1139 1099 1158 1207 1248 1391 1339 1445 1138 1357 1350 1463 1419 1602 1474 1106 934 1005 1261 1148 1266 1247 1092 1022 1007 989 752 736 1055 1042 1405 1809 1794 1766 1588 1755 1597 1565 1484 1251 1545 1734 1674 1630 1642 1714 1669 1592 1559 1593 1580 1547 1531 1536 1414 1424 1473 1514 1293 1314 1417 1464 1232 1179 1145 1098 1208 1175 1345 1283 1436 1294 1379 1425 1252 1114 1172 1371 1329 1351 1223 1313 1435 1569 1384 1407 1468 1508 1566 1501 1279 1183 1178 1182 1162 1342 1216 1264 1161 1157 890 925 892 933 983 981 974 931 717 732 798 737 901 810 902 760 742 617 394 485 568 695 637 802 745 614 639 600 370 393 426 454 427 526 371 341 449 476 549 522 604 589 667 646 757 702 780 1165 1225 1227 1662 1627 1290 1550 1041 1123 1128 841 796 593 464 733 782 628 676 605 519 749 920 774 674 328 222 216 200 165 154 73 70 27 37 25 45 180 140 11 8 7 14 12 4 18 5 2 51 110 118 123 74 36 65 58 244 227 290 288 414 390 439 472 521 438 354 257 307 319 432 440 373 408 350 444 588 644 659 701 908 840 886 809 825 990 1025 1111 1347 1312 1146 1205 1126 1077 1023 716 571 520 537 565 478 494 338 480 599 299 194 105 108 94 80 126 202 229 241 213 246 273 474 525 582 627 649 673 584 406 400 418 304 591 652 935 1006 1019 1034 894 724 576 538 658 625 586 557 715 603 754 683 879 916 888 834 984 844 943 915 1063 1191 1136 956 964 1053 1337 1356 1083 1058 1112 1416 1383 1385 1577 1574 1369 1233 1135 1087 1002 988 1026 945 1189 1430 1202 1133 1120 1047 1067 1134 1259 1573 1572 1691 1584 1519 1456 1400 1328 1222 918 766 725 706 712 795 707 564 595 455 524 510 622 528 530 489 382 469 560 573 665 562 655 671 693 666 686 781 677 748 635 450 621 452 509 620 559 508 506 787 636 631 592 352 437 670 797 762 619 634 587 681 793 786 545 335 248 217 310 266 326 339 321 379 461 401 423 496 515 516 598 581 552 583 527 505 459 298 349 359 258 284 292 376 388 404 398 468 411 380 412 492 434 443 358 300 316 369 340 344 270 356 315 330 333 276 254 237 219 209 184 150 135 121 54 64 138 164 220 345 262 268 275 324 363 318 188 156 81 48 47 79 104 112 173 196 193 172 56 32 31 128 75 29 41 59 82 62 46 38 22 23 17 24 13 30 39 168 96 52 169 181 224 278 277 233 289 325 296 279 366 819 656 490 541 477 392 570 329 263 231 197 109 78 93 76 60 122 185 167 348 286 337 396 431 415 534 488 453 409 482 529 563 761 705 714 546 261 232 242 175 146 131 142 158 19 9 21 42 49 15 26 35 43 10 6 53 50 106 139 95 125 204 201 236 187 151 69 34 61 3 1 33 20 16 28 44 114 99 67 57 287 342 425 547 626 613 696 912 965 979 1054 973 913 1029 1004 977 1048 1068 1033 1049 1267 1724 1402 1260 1363 1401 1282 1338 1477 1234 1104 1113 1236 1168 1064 1084 1366 1451 1137 1074 1095 1156 1108 1190 1453 1446 1434 1619 2068 2204 2244 2407 2409 2357 2282 2279 2665 2593 2686 2463 2581 2494 2308 2366 2334 2091 2110 1992 1833 1963 1921 1781 2014 1967 1798 2011 2180 2329 2346 2294 2059 2028 2022 2043 2047 2107 2063 2289 2448 2469 2220 2097 2046 2086 2162 2249 2288 2266 2185 1940 1965 2151 2168 2233 2267 2161 2230 2174 2248 2434 2374 2442 2320 2198 2316 2446 2526 2518 2573 2640 2982 3226 3348 3297 3521 3461 3350 3544 3611 3762 3806 3743 3632 3562 3335 3526 3369 3224 3067 3002 3164 3090 2786 2747 2775 2822 2995 3150 3143 3072 2981 2552 2576 2507 2695 2603 2639 2636 2441 2304 2216 2109 1991 1962 1938 2003 2221 2342 2424 2322 2435 2415 2261 2340 2404 2723 2439 2459 2609 2861 2917 2957 2984 3139 3395 3404 3266 3117 3152 3606 3468 3455 3353 3560 3476 3451 3372 3754 3590 3622 3699 3502 3503 3388 3304 3470 3575 3601 3537 3322 3515 3629 3542 3530 3364 3386 3448 3308 3355 3218 3334 3264 3182 3089 2974 3000 2857 2705 2674 2487 2538 2510 2428 2671 2712 2661 2550 2721 2530 2470 2268 2201 2367 2399 2499 2606 2543 2577 2298 2262 2364 2273 2284 2023 2195 2430 2368 2471 2527 2476 2482 2583 2788 2725 2675 2925 3211 3176 3051 3149 3183 3142 3282 3246 3131 3235 3252 3126 3156 3165 3145 3385 3172 3307 3491 3616 3704 3571 3679 3488 3239 2983 3073 3022 2999 3081 3006 3027 3036 2933 2836 2877 2928 3170 3101 3205 3371 3420 3589 3867 3686 3872 4000 4098 4081 3986 4088 4237 4248 4101 4135 4158 4256 4208 4321 4345 4249 3844 3914 4005 4031 4028 3888 3439 3418 3535 3604 3499 3127 3194 3200 3215 2988 3097 3254 3199 3223 2970 3122 3120 3207 3363 3533 3312 3423 3383 3338 3394 3678 3768 3558 3516 3393 3495 3484 3723 3960 4281 4203 4353 4150 4218 4361 4432 4071 3866 3609 3620 4107 3946 3812 3772 3764 3703 3727 3786 3598 3777 3895 4018 4045 3860 3959 3935 3789 4106 4251 4146 3939 3927 3827 3696 3636 3708 4053 4144 4316 4647 4560 4395 4436 4338 4210 3996 4057 3967 4033 3885 3747 4058 4142 4151 4097 4182 4495 4352 4416 4413 4262 4279 4365 4301 4085 3886 3950 4076 4159 4143 4046 4157 4325 4315 4777 4957 4922 5031 5474 5516 5498 5210 4989 4855 4866 4572 4548 4622 4496 4457 4282 4238 4187 3915 3933 3790 3924 3904 3840 3801 3793 3892 3862 3944 3983 4066 4221 4082 4170 3932 3729 3409 3267 3343 3430 3504 3648 3715 3751 3900 3901 3807 3973 3949 3936 4230 4488 4347 4317 4309 4307 4331 4390 4295 4261 4417 4116 4079 4226 4242 4086 4001 4109 4337 4349 4341 4227 3896 4283 4658 4640 4675 4646 4659 4653 4579 4617 4644 3832 3814 3831 3926 3584 3583 3185 3148 3147 3280 3196 3163 3296 3251 3290 3110 3138 3263 2904 2896 2779 2858 2817 2812 2460 2361 2299 2521 2944 2911 3004 2975 2996 2945 2761 2824 2840 2805 2714 2781 2724 2669 2743 2741 2210 2153 2089 2018 2197 2158 2027 2015 2179 2588 2620 2565 2614 2519 2567 2697 2655 2715 2497 2400 2413 2447 2338 2354 2253 2142 2133 2177 2105 2223 2235 2032 1973 1907 1912 2103 2094 2200 2172 2144 2064 1790 1758 1673 1695 1462 1301 1229 1141 1093 924 966 1031 995 1089 1142 1244 1340 1155 1204 1325 1394 1475 1529 1560 1639 1657 1608 1460 1304 1276 1065 993 1061 1274 1478 1300 1404 1323 1447 1500 1661 1613 1792 1924 1972 2167 2024 2030 2280 2257 2327 2396 2328 2383 2336 2397 2238 2199 2084 2243 2152 1970 1818 1915 1694 1866 1894 1996 1933 1665 1748 1605 1614 1341 1237 1263 1160 1194 1117 1094 1151 1358 1321 1121 1008 985 1009 1024 1050 946 1056 1685 1696 1731 1923 1779 1767 1884 1974 1826 1846 2066 1756 1859 1708 1831 1309 1129 1015 1017 917 727 731 699 868 811 954 899 789 585 479 553 311 295 148 251 221 271 239 152 267 195 190 136 103 85 130 191 86 97 100 117 171 207 334 317 473 486 467 569 763 847 722 615 466 498 374 283 272 247 256 252 282 208 141 145 159 212 203 420 378 347 456 882 1153 1193 1308 1581 1348 1277 1218 1270 1591 1697 1393 1522 1634 2124 2146 2169 2007 1986 2010 2065 1999 1819 1640 1736 1629 1576 1564 1675 1718 1971 2013 2139 2196 2039 2113 1863 1746 1713 1609 1603 1575 1530 1542 1431 1326 1273 1289 1403 1364 1495 1832 2058 2157 2123 1989 1952 1883 1922 1596 1693 1617 1856 1745 1968 2044 1969 1521 1817 1900 1951 1830 1837 1783 1887 2000 2276 2205 2247 2148 2012 1946 1872 1929 1871 1997 1935 2171 2062 2129 1853 1765 1764 1668 1641 1459 1311 1003 1010 926 940 866 708 769 661 623 331 305 419 481 493 518 612 672 734 691 824 487 442 463 567 624 675 313 343 199 314 383 365 391 355 360 302 245 397 362 430 726 713 679 788 517 457 301 381 361 294 322 293 101 116 133 92 113 87 149 160 162 137 226 240 225 259 228 210 155 170 119 115 153 157 163 89 124 91 88 77 55 63 72 120 71 178 211 206 174 144 84 68 129 40 98 107 90 111 102 66 83 134 177 127 176 243 198 205 234 249 372 320 389 633 602 436 416 678 654 703 865 905 980 1149 1287 1214 1199 1028 947 1144 948 944 854 869 851 758 863 800 768 741 642 611 429 405 511 523 668 718 765 743 688 647 502 491 555 590 843 823 729 698 775 756 767 618 460 501 483 535 536 606 558 513 662 632 664 692 751 821 778 776 875 663 531 495 594 554 723 794 818 839 813 972 1057 1085 1228 1376 1332 1297 1076 1198 1255 1406 1415 1412 1578 1684 1774 1821 1981 2005 2296 2312 2393 2670 2420 2461 2502 2475 2333 2356 2423 2318 2272 2412 2456 2592 2625 2649 2544 2558 2773 2704 2626 2488 2452 2496 2440 2535 2607 2757 2883 2864 2880 2734 2458 2568 2699 2728 2664 2691 2681 2708 2769 2737 2644 2491 2566 2503 
