tz6117.tsp
cities: 6117
runs: 100
avg cost: 878686
avg steps: 8614.78
best: 789546

Best route:
5806 5759 5736 5655 5684 5627 5639 5654 5665 5573 5643 5589 5574 5576 5575 5561 5497 5462 5454 5480 5455 5432 5442 5449 5482 5492 5481 5537 5468 5516 5501 5531 5549 5587 5559 5536 5547 5467 5503 5508 5525 5529 5566 5594 5633 5635 5636 5642 5773 5905 5933 5964 5919 5904 5879 5857 5772 5851 5878 5842 5850 5917 5902 5830 5831 5870 5821 5758 5724 5790 5743 5791 5822 5858 5775 5725 5717 5726 5656 5577 5538 5613 5580 5541 5510 5540 5539 5532 5550 5581 5520 5502 5498 5519 5556 5629 5563 5590 5628 5620 5727 5666 5606 5607 5686 5630 5621 5582 5599 5614 5646 5583 5569 5657 5645 5685 5744 5793 5824 5760 5748 5808 5809 5792 5701 5703 5712 5711 5702 5597 5598 5517 5588 5605 5568 5604 5638 5637 5700 5618 5610 5572 5603 5530 5571 5567 5596 5609 5619 5474 5416 5401 5447 5479 5469 5461 5450 5475 5423 5526 5483 5495 5496 5518 5560 5555 5562 5578 5612 5579 5644 5810 5845 5834 5783 5782 5833 5807 5776 5843 5920 5944 5907 5880 5781 5774 5683 5641 5682 5626 5611 5554 5487 5494 5448 5413 5397 5377 5366 5360 5361 5356 5330 5382 5402 5403 5404 5418 5414 5433 5381 5371 5334 5300 5333 5322 5310 5301 5288 5332 5355 5353 5354 5328 5348 5375 5329 5306 5276 5303 5292 5302 5311 5250 5241 5194 5198 5209 5193 5224 5275 5248 5244 5230 5270 5259 5304 5314 5412 5429 5441 5444 5435 5420 5384 5364 5376 5425 5427 5421 5394 5385 5357 5369 5342 5358 5287 5299 5341 5338 5388 5373 5439 5411 5438 5410 5352 5372 5458 5396 5347 5351 5363 5298 5160 5214 5121 5140 5197 5122 5012 4960 5130 5068 4997 5011 5079 5040 5030 4959 4939 4872 4928 4995 5039 5037 5108 5053 5149 5138 5159 5120 5139 4973 4732 4693 4728 4694 4711 4752 4745 4770 4800 4783 4771 4753 4809 4785 4652 4657 4636 4558 4573 4557 4582 4602 4581 4496 4562 4580 4675 4635 4626 4634 4583 4595 4603 4650 4649 4917 4900 4884 4899 4915 4916 4883 4797 4885 5066 5087 5077 4994 5086 5099 5220 5256 5232 5368 5280 5308 5312 5282 5281 5319 5340 5336 5344 5350 5337 5345 5318 5317 5255 5254 5286 5218 5234 5295 5324 5349 5325 5362 5367 5378 5335 5339 5316 5323 5261 5252 5290 5253 5247 5219 5188 5242 5238 5229 5215 5212 5228 5243 5267 5279 5278 5273 5285 5251 5277 5293 5315 5260 5271 5272 5307 5296 5274 5268 5083 5005 4992 5046 5098 5028 4925 4947 4983 5034 5049 5116 5179 5257 5283 5313 5320 5383 5392 5470 5451 5443 5512 5485 5499 5534 5661 5660 5753 5813 5754 5752 5730 5691 5797 5958 5898 5695 5696 5707 5731 5708 5732 5755 5765 5978 5814 5839 5493 5406 5387 5263 5190 5223 5235 5309 5327 5208 5239 5169 5088 5150 4918 4846 4815 4826 4839 4975 4996 4838 4887 4974 5038 5078 5052 4986 4938 4786 4759 4784 4857 4807 4845 4837 4844 5051 5067 5010 5107 5101 5137 5166 5180 5173 5174 5148 5136 5127 5100 5009 5036 5106 4985 4958 5035 5105 5050 4886 4901 4825 4769 4757 4744 4731 4814 4780 4821 4949 5262 5269 5321 5284 5326 5331 5258 5221 5213 5202 5181 5135 5207 5008 4972 4927 4856 4751 4648 4585 4454 4362 4263 4240 4239 4238 4354 4386 4367 4337 4288 4201 4073 3972 4050 4200 4121 4584 4535 4461 4435 4641 4647 4716 4667 4656 4687 4843 4813 4750 4767 4724 4700 4572 4528 4482 4594 4520 4536 4561 4579 4620 4699 4795 4879 4955 4935 4944 4980 4979 4911 4861 4867 4990 4965 4964 4954 4933 4978 5062 5111 5184 5183 4963 4908 4932 5070 5018 4989 5156 5031 4953 4892 4877 4907 4906 4756 4743 4742 4741 4715 4706 4666 4546 4526 4527 4434 4336 4311 4273 3860 3821 3720 3820 3703 3767 3704 3548 3377 3314 3234 3216 3265 3079 3091 2947 2887 2900 2813 2756 2931 2957 2999 3032 3092 3093 3639 3442 3426 3896 3906 3868 3781 3961 3934 4026 3998 3869 3907 3803 3879 3897 3838 3853 3528 3707 3504 3355 3282 3640 3721 3973 4135 4039 4327 4377 4174 4289 4115 4213 4189 4106 4040 3989 3999 4062 4074 4041 4098 4063 4292 4338 4291 4379 4422 4438 4355 4222 4191 4329 4356 4455 4364 4307 4387 4328 4368 4437 4399 4436 4483 4416 4507 4484 4495 4508 4476 4556 4668 4688 4674 4707 4689 4506 4491 4469 4363 4348 4347 4312 4376 4241 4173 4122 4188 4212 4090 4012 3925 3917 3804 3657 3316 3315 3505 3333 3356 3334 3378 3642 3592 3357 3117 3052 3020 3250 3465 3734 3658 3641 3391 3591 3529 3550 3674 3753 3742 3708 3735 3898 3822 3833 3839 3811 3889 4051 4176 4175 4097 4075 4052 4064 3918 4027 3990 3935 3890 3871 4042 4099 4178 4215 4153 4203 4177 4146 4168 4145 4065 4066 4136 4157 4294 4243 4265 4293 4275 4365 4274 4224 4223 4216 4245 4217 4193 4067 4028 4043 4092 4044 3976 3965 3861 3873 3770 3662 3646 3598 3599 3412 3359 3413 3394 3444 3381 3339 3240 3138 3070 3155 3186 3156 3139 3036 2963 3072 3004 2933 2942 2972 2995 2988 3026 2994 2962 3025 3097 3122 3137 3107 3713 3745 3816 3556 3619 3532 3396 3445 3470 3395 3533 3681 3663 3757 3874 3980 4016 4035 4022 4057 4034 4004 4003 3928 3938 3910 3835 3508 3446 3398 3397 3486 3361 3431 3664 3771 3682 3414 3272 3254 3204 3363 3362 3205 3141 3008 3007 3109 3172 3083 3018 2974 3029 3108 3225 3158 3098 3159 2966 3057 3341 3509 3578 3696 3727 3737 3747 3683 3772 3773 3807 3806 3829 3783 3784 3843 3885 3892 3941 3864 3912 3911 3902 3929 4070 4036 3982 4084 4087 4163 4228 4342 4196 4499 4552 4559 4587 4569 4565 4542 4734 4776 4747 4773 4788 4827 4873 4816 4847 4961 4574 4498 4403 4351 4319 4268 4381 4359 4340 4267 4317 4296 4309 4318 4390 4391 4401 4450 4464 4410 4411 4402 4424 4510 4643 4695 4787 4733 4772 4613 4676 4682 4638 4660 4630 4598 4599 4551 4497 4474 4485 4465 4418 4412 4247 4246 4149 4180 4100 4160 4158 4159 4116 4148 4107 4125 3948 3974 3909 3872 3899 3964 3900 3919 3880 3813 3693 3645 3678 3597 3680 3618 3712 3617 3443 3393 3358 3222 2902 2667 2604 2688 2668 1672 1897 1482 1407 1362 1552 2114 1977 2080 2031 2000 2032 2150 1875 1904 2007 1958 2055 1985 1876 1850 1902 1934 1932 1901 1848 1822 1823 1805 1738 1765 1727 1648 1618 1562 1617 1710 1737 1802 1804 1708 1726 1803 1869 1748 1725 1643 1614 1673 1629 1615 1514 1513 1559 1560 1561 1587 1616 1570 1588 1631 1666 1678 1632 1664 1644 1630 1665 1739 1749 1711 1712 1692 1657 1691 1676 1709 1675 1674 1690 1735 1978 1928 1868 1844 1783 1843 1874 1873 1851 1849 1900 1845 1846 1930 1979 1931 2115 2116 1980 2003 1935 1955 1960 1879 1857 1827 1910 1826 2120 2293 2521 2516 2447 2412 2446 2515 2630 2691 2649 2910 2880 2824 2825 2723 2848 2881 2797 2799 2798 2827 2631 2609 2517 2651 2553 2552 2652 2633 2555 2387 2292 2291 2353 2513 2546 2514 2512 2256 2182 2181 2205 2289 2290 2382 2445 2352 2232 2383 2354 2320 2258 2207 2257 2318 2206 2255 2229 2317 2231 2156 2118 2084 1808 1855 2088 2059 2122 2087 2089 1962 2121 2262 2123 2008 2086 2158 2058 2208 2259 2321 2386 2209 2235 2233 2324 2294 2234 2184 2039 2063 1967 1912 2010 2038 2060 2040 2125 2093 2186 2163 2126 2265 2211 2210 2264 2358 2359 2391 2495 2417 2392 2296 2390 2328 2297 2360 2329 2325 2266 2326 2450 2261 2449 2475 2522 2828 2710 2742 2560 2634 2556 2557 2611 2587 2520 2519 2586 2492 2518 2415 2323 2356 2414 2385 2448 2493 2474 2260 2413 2548 2411 2384 2473 2628 2491 2629 2547 2610 2612 2588 2613 2554 2357 2037 1961 1825 1789 1856 1909 2157 2183 1986 1940 1941 2085 2057 2322 2608 2650 2607 2768 2929 2823 2796 2674 2632 2585 2549 2551 2550 2355 2319 2254 2350 2253 2351 2119 1906 1982 1983 1956 1877 1806 1852 1905 1854 1878 1907 1908 1937 1936 1807 1787 1767 1853 1933 2053 2002 1903 1872 1871 1953 1999 2052 1997 1736 1763 1782 1689 1898 1998 2079 2078 2082 2081 2315 2148 2286 2226 2544 2489 2471 2314 2287 2202 2472 2794 2690 2606 2545 2490 2316 2381 2349 2380 2409 2410 2671 2673 2672 2795 2946 2955 2965 2928 3006 3073 3037 2964 2895 2896 2908 2909 2894 2927 2937 2954 2905 2945 2935 2944 2952 2943 2953 2934 2903 2890 2842 2874 3003 2986 2950 3023 3015 3068 3022 3285 3081 3223 3286 3200 3270 3360 3620 3600 3966 4033 4047 4101 4111 4031 4032 4056 4015 4002 4030 4069 4207 4299 4280 4162 4248 4170 4109 4138 4021 4068 4054 4001 3977 3992 3949 3993 3920 3834 3936 3882 3847 3782 3881 3815 3710 3694 3679 3793 3711 3661 3485 3380 3154 3576 3555 3507 3469 3531 3430 3170 3183 3429 3554 3317 3337 3468 3692 3484 3553 3768 3755 3660 3791 3823 3908 4013 4000 3744 3792 3756 3724 3644 3596 3530 3616 3677 3575 3506 3428 3338 3199 3299 3236 3152 3066 3151 3198 3269 3119 3095 3035 3064 3080 3169 3150 3105 3021 2958 2914 2948 2787 2581 2626 2666 2468 2647 2737 2738 2469 2486 2347 2377 2577 2510 2407 2440 2467 2441 2406 2439 2703 2576 2686 2284 2345 2074 1992 1951 2048 1761 2109 2029 2285 2313 2222 2110 1866 2178 2075 1993 2250 2346 2543 2578 2579 2487 2580 2511 2789 2839 2705 2921 2915 2788 2920 2816 2941 3063 3054 3118 3062 3148 3335 3549 3427 3551 3593 3659 3283 2982 2940 2981 3033 2992 3034 3149 3167 3251 3168 3195 3252 3336 3552 3466 3595 3643 3709 3676 3805 3723 3790 3691 3675 3743 3754 3819 3812 3722 3572 3615 3573 3574 3410 3298 3297 3253 3284 3221 3197 3196 3182 3392 3411 3594 3467 3379 3268 2888 2863 2378 2225 2224 2113 2050 2180 2147 1996 1926 1994 2223 2582 2251 2179 2076 1952 1925 2146 1924 1894 1799 1733 1779 1865 1839 1840 1778 1707 1663 1557 1586 1528 1601 1642 1800 2049 2112 2111 1762 1723 1819 1867 2051 1995 1841 1747 1801 1724 1688 1602 1653 1558 1466 1496 1551 1498 1429 1428 1387 1440 1378 1417 1330 1361 1427 1449 1512 1533 1448 1406 1353 1274 1329 1319 1370 1418 1388 1497 1450 1451 1781 1842 1927 1896 2200 2077 2201 2583 2687 2932 2993 3153 3237 3184 3318 3238 2970 2985 2969 2984 2949 3067 3014 2739 2348 2442 2488 2470 2889 2983 3000 3013 3106 3001 3065 3136 3267 3181 3039 3061 3094 3219 3220 3135 3011 3053 3012 2736 2815 2862 2758 2757 2704 2509 2030 1722 1732 1864 1777 1652 1720 1893 1798 1685 1760 1706 2177 2028 1797 1892 1705 1531 1457 1424 1413 1400 1384 1375 1444 1422 1471 1423 1386 1519 1556 1662 1555 1524 1508 1476 1399 1411 1433 1383 1460 1487 1421 1455 1461 1475 1456 1435 1401 1414 1434 1412 1371 1341 1385 1269 1234 1187 1206 1216 1181 1164 1189 1180 1152 1200 1218 1171 1151 1116 1162 1241 1235 1230 1208 1236 1207 1172 1231 1282 1312 1402 1368 1404 1438 1510 1492 1584 1611 1539 1489 1479 1520 1521 1525 1447 1490 1480 1526 1540 1687 1671 1721 1746 1670 1686 1640 1641 1568 1780 1895 1734 1600 1569 1511 1465 1377 1541 1532 1613 1495 1493 1463 1446 1403 1491 1509 1437 1394 1324 1347 1348 1425 1376 1359 1416 1439 1396 1360 1358 1395 1464 1458 1481 1494 1585 1612 1628 1550 1527 1426 1405 1369 1372 1365 1328 1327 1273 1318 1333 1415 1445 1478 1436 1326 1311 1298 1305 1306 1217 1188 1199 1170 1122 1090 1118 1106 1077 1017 1107 1119 1147 1078 993 988 933 890 880 917 841 822 814 780 801 842 834 802 654 480 519 576 540 639 717 754 853 861 881 860 859 944 962 970 987 1016 1059 1117 1163 1215 1205 1146 1161 1204 1137 1198 1160 1179 1221 1228 1213 1252 1281 1229 1260 1259 1227 1240 1239 1238 1272 1280 1321 1320 1346 1345 1351 1292 1290 1264 1263 1258 1220 1251 1196 1237 1297 1317 1393 1340 1339 1279 1271 1291 1304 1233 1226 1203 1140 1129 1125 1114 995 967 1046 1036 1073 1045 1100 1057 1150 1136 1104 1141 1169 1278 1296 1303 1302 1316 1277 1301 1267 1013 1055 1023 994 1022 984 985 940 939 876 875 847 877 900 942 930 972 986 957 973 1000 996 1126 1144 1142 1145 1159 1214 1265 1268 1197 1143 1105 1121 1130 1014 1087 1047 1058 1088 1111 1024 1015 975 969 904 852 833 813 809 832 779 759 777 785 786 821 787 778 637 596 522 538 521 544 515 416 377 395 407 423 443 436 442 451 404 408 457 545 589 464 425 418 445 412 439 458 393 411 365 358 371 321 317 359 344 410 438 437 337 364 419 323 338 322 316 297 295 309 280 306 249 268 255 261 331 310 281 271 360 432 453 465 446 454 460 459 512 525 539 600 575 617 591 548 479 497 509 486 420 400 367 375 345 332 353 325 312 252 253 340 383 402 401 382 372 368 324 307 311 352 380 346 366 381 399 398 474 433 339 351 262 260 270 296 269 259 209 215 239 199 225 250 200 193 119 96 25 38 44 65 97 51 105 143 142 88 123 121 133 134 141 176 187 228 202 243 272 244 235 120 30 110 185 182 183 184 201 216 240 251 282 284 283 186 118 170 227 226 151 152 103 140 79 127 80 163 158 111 122 104 132 153 210 426 447 347 487 500 481 488 482 577 528 491 461 427 421 394 369 384 455 466 499 478 618 578 529 741 869 918 1004 963 1094 1095 1082 1092 1091 1049 1081 1050 1062 1139 1153 1191 1138 1127 1128 1064 1063 1093 1083 1005 1039 989 1018 1065 999 1007 1067 1043 1084 991 1009 1032 1044 1103 1194 1314 1246 1193 1156 1066 1040 1052 1041 1042 892 935 1010 1155 1167 1183 1232 1211 1210 1223 1219 1254 1309 1253 1212 1245 1222 1149 1154 1192 1182 1069 1033 1031 1068 1053 1029 1030 1008 1020 1109 1132 1115 1019 1028 1051 1006 990 1027 979 906 843 815 771 742 619 891 870 978 977 1026 1048 1038 868 934 1003 1080 1079 1002 1112 1165 1190 1313 1293 1307 1275 1308 1331 1334 1270 1242 1284 1285 1243 1209 1166 1244 1287 1286 1148 1131 1061 883 640 601 905 1060 976 882 1025 1108 1283 1352 1261 1102 1037 945 823 770 824 781 760 769 768 740 708 753 653 676 677 707 675 706 689 652 638 627 573 574 496 494 495 518 557 517 533 547 490 498 507 508 506 505 527 526 532 524 493 504 516 523 546 616 674 572 599 555 556 598 590 597 565 636 615 728 698 699 688 614 673 564 613 662 514 611 727 726 808 797 807 796 725 738 795 831 839 724 697 553 595 570 554 626 571 687 587 671 609 586 585 634 610 588 635 648 672 661 612 650 649 705 715 776 739 799 840 901 927 899 914 874 873 912 924 887 1012 946 983 966 956 955 889 947 925 913 915 878 865 798 968 903 928 848 800 651 752 716 858 857 849 850 867 851 960 958 948 959 998 1074 1076 1101 1089 1075 1001 992 997 932 943 974 902 879 866 931 916 926 941 888 775 737 736 685 686 582 510 541 492 485 520 607 608 583 542 584 503 511 543 552 569 704 829 830 723 784 828 806 864 923 971 965 1086 1097 1072 1099 1056 1110 1098 1276 1332 1336 1350 1295 1186 1178 1195 1185 1250 1288 1299 1382 1420 1338 1289 1310 1300 1337 1518 1574 1609 1890 1774 1703 1627 1702 1835 1730 1719 1731 1759 1583 2022 2646 2574 2573 2464 2373 2463 2342 2198 2023 2107 2046 2436 2625 2199 1990 1921 1775 1836 1575 1610 1991 1837 2026 1922 1796 1776 1923 1838 1863 1567 1477 1462 1488 1576 1639 1599 1704 1891 2027 2702 2602 2376 2108 2665 2603 2438 2437 2508 2485 2405 2786 2913 3051 3147 3134 3218 3235 3217 3266 3166 3050 2872 2912 2901 3133 3281 3390 3464 3733 3483 3614 3706 3870 3947 3962 3963 3741 3798 3705 3409 3104 2701 2466 2145 2025 1949 1950 1975 1976 2601 2814 2575 2404 2344 2283 2249 2282 2073 2465 2541 2403 2435 2374 2375 2047 2024 1974 2144 2343 2542 2939 2980 2979 2998 2991 2978 2977 3078 3313 3048 3047 3076 3077 3031 3103 3766 3789 3090 2899 3046 3089 3102 3780 3810 3895 3971 3788 3638 3570 3637 3571 3702 3636 3635 3590 3690 3797 3796 3632 3656 3634 3526 3463 3353 3375 3462 3461 3673 3611 3503 3547 3612 3633 3752 3731 3764 3765 3701 3610 3389 3408 3522 3441 3280 3087 3009 3060 3214 3233 3423 3248 3521 3585 3546 3687 3779 3751 3778 3969 3959 3894 3878 3787 3719 3732 3672 3689 3655 3654 3352 3331 3312 3215 3424 3264 3330 3311 3523 3459 3460 3524 3502 3425 3589 3588 3501 3545 3629 3568 3586 3569 3630 3631 3587 3740 3688 3525 3332 3354 3075 2663 2783 2860 2859 2506 2434 2277 2248 2340 2278 1699 1773 1887 1834 1815 1757 1696 1454 1545 1597 1651 1608 1294 1381 1366 1343 1410 1442 1486 1502 1506 1548 1536 1505 1473 1470 1409 1469 1504 1529 1516 1530 1566 1547 1572 1650 1669 1971 2020 1988 1818 1972 1915 1918 1886 2017 1946 1861 1970 2019 1816 1745 1817 1987 1917 1793 1700 1624 1573 1582 1571 1564 1537 1543 1661 1626 1553 1549 1563 1623 1637 1596 1636 1716 1668 1888 1860 1883 2247 2102 2138 2018 2309 2461 2624 2402 2537 2370 2505 2197 1973 2015 1885 1794 1718 1795 1638 1625 1565 1523 1546 1535 1501 1391 1398 1507 1517 1474 1503 1554 1581 1598 1772 1916 1859 1684 1698 1682 1683 1697 1595 1485 1459 1392 1367 1349 1344 1364 1335 1248 1158 1184 1202 1168 1123 1054 951 845 844 745 679 603 559 592 560 629 579 709 792 773 764 702 714 666 681 731 722 721 718 700 772 755 747 819 804 835 836 863 862 908 919 872 894 895 909 954 980 949 981 982 1071 1134 1070 1035 884 871 921 893 907 936 922 952 953 950 920 1034 964 961 1011 1113 1124 1176 1177 1135 1085 938 898 937 886 856 855 885 911 910 896 897 929 827 703 668 751 684 758 767 837 838 805 820 812 794 811 735 660 670 657 682 656 594 647 683 669 658 766 793 750 734 774 765 733 646 501 606 537 551 659 563 566 568 502 489 463 414 469 477 450 428 434 370 354 376 363 333 403 448 483 633 593 645 691 694 663 696 711 761 664 757 756 748 749 567 625 790 818 789 763 746 631 712 720 710 743 744 713 678 693 632 655 624 623 719 690 604 467 470 476 413 471 468 472 462 441 475 473 319 291 362 405 348 276 300 273 285 287 245 256 207 230 194 137 49 40 94 107 70 108 139 131 102 95 149 109 78 50 36 37 64 63 56 22 7 21 54 55 62 77 39 53 34 2 14 11 24 4 35 3 15 41 71 373 374 349 320 336 343 329 330 350 342 387 390 378 406 415 429 417 430 435 431 422 391 357 396 409 388 392 444 424 452 397 386 389 385 379 356 150 157 138 169 198 208 279 294 305 355 328 335 315 293 334 278 233 214 161 238 248 247 234 267 304 308 246 168 223 224 162 125 126 117 116 87 43 59 73 112 148 167 197 218 236 220 195 196 188 274 289 237 222 136 98 86 76 113 89 145 69 99 92 85 84 101 58 32 17 8 9 13 19 6 12 100 83 106 91 52 72 90 60 33 27 18 23 48 114 135 130 129 128 74 68 57 61 31 29 28 16 20 1 10 5 26 81 47 67 82 166 160 165 164 154 124 147 177 189 178 173 175 156 115 75 46 45 42 66 93 144 155 203 204 146 172 181 180 191 211 190 217 192 221 229 213 206 212 219 263 288 301 266 265 241 258 286 292 341 361 314 327 299 303 290 254 257 275 302 264 318 326 313 298 242 277 232 231 159 171 174 179 205 456 449 440 484 535 534 558 602 622 561 550 562 530 513 536 531 549 621 628 580 605 620 581 641 695 665 630 642 732 762 782 692 680 729 701 644 643 667 791 846 854 826 817 730 783 803 816 810 825 788 1021 1096 1157 1133 1174 1173 1255 1262 1175 1201 1224 1256 1325 1389 1374 1315 1266 1249 1120 1225 1247 1257 1357 1356 1323 1390 1432 1443 1544 1538 1453 2507 2700 2310 2372 2539 2105 2139 2141 2140 2221 2143 1989 2106 2142 2311 2720 2664 2735 2861 3132 3049 2755 2784 2785 2600 2540 2599 2281 2021 2341 2280 2279 2072 1758 1889 2103 2312 2484 2538 1701 1969 1919 1717 1833 2071 2104 2371 2432 2431 2276 2462 2137 1947 1920 1862 2016 1948 1884 2045 2070 2339 2433 2572 3115 3249 3180 3116 3010 2976 3088 2645 2699 2919 2997 3019 2968 2975 3030 3131 3376 3527 3613 3809 3851 3808 3832 3845 3850 3859 3802 3904 3905 4144 4333 4366 4286 4302 4353 4404 4452 4332 4325 4151 4096 3960 3970 4089 4113 4072 4061 4152 4133 4038 3852 3867 3946 4120 4132 4131 4236 4326 4372 4361 4211 4199 4114 4134 4119 4167 4303 4304 4305 4346 4335 4393 4385 4373 4427 4398 4420 4406 4415 4421 4446 4374 4395 4453 4490 4468 4504 4533 4516 4445 4396 4262 4253 4272 4254 4306 4237 4252 4334 4261 4271 4344 4287 4260 4414 4345 4397 4392 4384 4405 4432 4444 4426 4467 4534 4617 4673 4639 4655 4714 4523 4532 4522 4592 4600 4618 4646 4623 4625 4601 4505 4544 4555 4576 4609 4593 4548 4407 4394 4460 4503 4547 4570 4502 4554 4608 4644 4684 4735 4811 4713 4663 4823 4889 4905 4804 4738 4754 4792 4791 4721 4679 4664 4645 4619 4678 4697 4720 4737 4831 4817 4818 4739 4736 4760 4830 4890 4851 4865 4988 5092 5081 4999 5016 5024 4858 4832 4940 4930 4952 4998 4942 4920 4943 4875 4859 4755 4722 4633 4665 4685 4705 4740 4686 4761 4624 4577 4525 4433 4375 4489 4475 4524 4545 4517 4518 4519 4571 4578 4567 4640 4610 4764 4775 4833 4860 4819 4794 4779 4765 4698 4730 4778 4763 4853 4805 4824 4766 4894 4910 4934 4878 4893 4909 4841 4793 4774 4777 4762 4812 4931 5061 5093 5071 4976 4977 5000 5001 5082 5162 5172 5185 5237 5217 5265 5226 5205 5199 5225 5204 5154 5155 5104 5042 5069 4941 4891 4852 4876 4962 4866 5017 5191 5201 5200 5266 5227 5211 5144 5171 5186 5170 5094 5112 5157 5192 5158 5146 5147 5134 5164 5126 5145 5163 5196 5195 5294 5289 5246 5206 5187 5096 5133 5132 5113 5097 5063 5114 5072 5095 5019 5004 5002 5003 4820 4723 4749 4881 4967 5032 4966 4914 4922 5064 4991 5073 5045 4895 4956 4937 4923 4945 4868 4854 4835 4981 4968 4834 4921 4936 4863 4913 4862 4842 5026 5025 4880 4912 5043 5044 5115 5065 5048 5076 5075 5074 5084 5033 4946 4970 4924 4870 4869 4806 4855 4957 4969 5007 4896 4926 4971 4871 4836 4768 4796 4948 4882 4898 4984 4897 4993 4982 5006 5027 5085 5047 5165 5178 5297 5346 5386 5440 5424 5405 5390 5445 5504 5484 5615 5570 5542 5511 5527 5437 5419 5434 5391 5415 5476 5456 5457 5477 5608 5591 5631 5658 5622 5667 5718 5675 5674 5687 5704 5784 5811 5749 5863 5835 5668 5846 5922 5909 6005 5998 5982 6006 6073 6078 6074 6035 6057 6079 6081 6082 6029 5938 6014 5968 5948 5924 5987 5957 5910 5864 5925 5988 6094 6099 6107 6098 6104 6088 6084 6072 6047 6060 6064 6055 6034 6039 6028 5936 5967 5975 5976 5853 5892 5923 5956 5893 5882 5895 5949 5896 5825 5872 5947 5999 5969 5937 5894 5836 5728 5676 5794 5970 6000 5989 6044 6085 6065 6095 6100 6048 5977 5983 5865 5812 5785 5738 5719 5713 5689 5533 5617 5647 5659 5670 5720 5764 5777 5690 5671 5679 5739 5694 5693 5678 5624 5672 5640 5706 5677 5751 5826 5855 5795 5762 5763 5669 5616 5623 5705 5688 5750 5745 5837 5761 5866 5854 5873 5729 5737 5796 5897 6049 6001 6036 5798 5799 5692 5600 5648 5521 5543 5564 5584 5513 5523 5551 5544 5522 5505 5446 5393 5233 5203 5222 5189 5182 5175 5129 5128 5168 5167 5176 5118 5119 5117 5029 4808 4799 4758 4702 4669 4690 4708 4726 4727 4709 4701 4611 4621 4596 4529 4492 4439 4447 4472 4521 4549 4448 4462 4473 4479 4458 4463 4429 4441 4449 4442 4339 4277 4297 4266 4295 4192 4123 4124 4091 4137 4205 4244 4257 4194 4154 4204 4147 4085 4076 4053 4014 3991 4029 3891 3926 3846 3799 3769 3814 3854 3901 3975 4127 4218 4108 4155 4206 4330 4358 4350 4428 4539 4550 4719 4671 4691 4651 4642 4692 4718 4627 4637 4612 4605 4563 4389 4456 4408 4388 4290 4214 4202 4190 4242 4255 4308 4256 4315 4314 4380 4369 4313 4264 4378 4470 4509 4537 4538 4604 4680 4717 4725 4798 4781 4782 4710 4670 4659 4681 4658 4629 4628 4606 4597 4564 4477 4478 4471 4457 4440 4417 4400 4409 4423 4357 4349 4370 4316 4298 4276 4225 4126 4230 4278 4179 4169 4279 4161 4110 4128 4139 4226 4181 4320 4382 4360 4195 4184 4208 4231 4249 4227 4182 4300 4140 4102 4118 4103 4094 4117 4077 4055 4078 4086 4046 4045 3978 3921 3937 3951 3950 3927 4018 3939 3855 3856 3841 3736 3758 3952 3983 3922 4017 3981 3979 4093 4129 4183 4219 4269 4341 4331 4352 4614 4615 4540 4512 4513 4430 4511 4541 4586 4703 4677 4653 4746 4568 4514 4480 4419 4431 4486 4321 4209 4130 4079 4005 3953 3985 3930 4104 4080 4058 4024 4081 4023 3913 3942 3955 4006 4007 4060 3943 3932 3924 3944 3968 4025 4082 4020 3958 3945 3916 3888 3967 3956 3903 3858 3877 3749 3775 3785 3762 3776 3777 3915 3931 3923 3893 3866 3865 3849 3844 3876 3914 3837 3831 3795 3830 3800 3801 3759 3818 3887 3886 3848 3828 3827 3842 3862 3836 3884 4048 3954 3984 4019 3940 3883 3863 3857 3726 3487 3577 3471 3621 3432 3534 3695 3714 3725 3746 3794 3825 3826 3817 3875 3824 3840 3647 3302 3140 3157 3082 3043 3055 3056 3028 3042 2893 2917 2907 2876 2820 2793 2791 2741 2721 2818 2792 2764 2846 2762 2843 2790 2761 2840 2760 2841 2759 2873 2740 2627 2916 2922 2959 2960 2923 2987 3024 2971 2961 2951 3016 3069 3002 3121 3185 3239 3171 3120 3096 3123 3124 3203 3224 3241 3319 3300 3301 3340 3287 3271 3201 3202 3041 3005 3071 3040 3017 2996 2973 2936 2925 2926 2989 3027 2924 2875 2891 2817 2819 2845 2904 2906 2892 2864 2844 2763 2584 2706 2709 2708 2766 2767 2866 2821 2865 2689 2722 2669 2605 2707 2765 2670 2877 2878 2879 2822 2847 2648 2444 2252 2227 2408 2443 2288 2152 2083 2033 2117 2001 1981 1954 1984 2006 2036 2230 2203 2149 2379 2228 2153 2054 2056 1938 1788 1959 1939 1957 2035 2005 2004 2034 2154 2155 2151 2204 1929 1899 1821 1713 1681 1635 1590 1591 1593 1542 1452 1408 1515 1468 1467 1441 1472 1483 1484 1380 1431 1397 1363 1373 1342 1355 1354 1499 1419 1322 1379 1430 1500 1522 1577 1654 1764 1784 1847 1870 1820 1785 1751 1786 1694 1579 1605 1534 1592 1619 1634 1645 1604 1603 1589 1646 1677 1655 1647 1649 1659 1667 1695 1768 1741 1750 1679 1766 1752 1740 1824 1693 1656 1633 1606 1578 1658 1680 1753 1620 1607 1621 1660 1622 1594 1580 1744 1742 1728 1770 1743 1882 1968 1965 1944 1812 1830 1828 1858 1914 1943 1964 1963 1911 1829 1966 1880 1832 1881 1814 1729 1715 1755 1714 1769 1790 1811 1809 1810 2009 2061 2011 2237 2295 2236 2162 2090 2161 2124 2092 2091 2298 2185 2159 1942 1913 1831 1813 1791 1792 1756 1754 1771 1945 2062 2012 2160 2263 2416 2388 2494 2327 2418 2476 2389 2497 2562 2561 2524 2558 2559 2451 2496 2525 2523 2590 2591 2589 2692 2654 2677 2802 2803 2850 2868 2869 2918 2771 2743 2725 2724 2711 2744 2800 2898 2938 2930 2967 2990 2956 2849 2884 2882 2897 2883 2769 2826 2911 2867 2801 2770 2712 2675 2676 2678 2653 2635 2614 2526 2527 2726 2498 2452 2563 2500 2503 2571 2621 2623 2460 2483 2504 2536 2275 2193 2170 2129 2041 2094 2066 2099 2131 2218 2101 2176 2173 2194 2171 2195 2134 2132 2069 2064 2042 2127 2239 2169 2422 2362 2420 2453 2395 2424 2454 2191 2166 2165 2190 2168 2043 2044 2095 2014 2065 2096 2098 2067 2013 2068 2100 2135 2238 2269 2267 2419 2478 2332 2303 2272 2274 2367 2334 2333 2363 2425 2428 2366 2429 2400 2430 2533 2481 2477 2502 2499 2398 2365 2396 2421 2528 2529 2693 2871 2870 2834 2855 2835 2780 2751 2838 2811 2782 2857 2808 2729 2681 2615 2619 2564 2593 2592 2656 2730 2774 2727 2749 2779 2717 2694 2655 2679 2746 2616 2535 2501 2569 2662 2622 2596 2595 2568 2530 2618 2637 2636 2695 2732 2781 2753 2713 2658 2657 2696 2639 2715 2680 2716 2752 2733 2731 2718 2643 2598 2458 2307 2219 2245 2136 2174 2216 2394 2361 2393 2330 2268 2299 2164 2128 2187 2212 2213 2130 2167 2097 2215 2273 2304 2244 2338 2305 2399 2308 2457 2534 2482 2566 2617 2682 2659 2697 2778 2809 2851 2772 2773 2833 2853 2886 2810 2698 2734 2754 2644 2642 2620 2594 2531 2427 2479 2456 2459 2368 2369 2306 2220 2246 2401 2480 2426 2364 2242 2300 2270 2397 2335 2336 2337 2175 2196 2133 2189 2243 2271 2423 2455 2301 2188 2240 2172 2192 2217 2214 2302 2241 2331 2565 2641 2638 2640 2683 2660 2567 2532 2597 2570 2661 2684 2685 2719 2812 2836 2775 2805 2804 2854 2832 2776 2829 2885 2807 2837 2858 2777 2856 2830 2745 2747 2748 2750 2714 2728 2852 2806 2831 3045 3059 3044 3160 3127 3144 3145 3177 3247 3232 3194 3179 3128 3129 3038 3085 3101 3074 3100 3099 3142 3125 3230 3211 3112 3163 3193 3114 3086 3084 3110 3162 3126 3143 3176 3173 3210 3295 3370 3348 3346 3440 3500 3417 3366 3344 3276 3260 3291 3342 3258 3293 3292 3277 3324 3323 3303 3322 3306 3308 3349 3326 3369 3307 3327 3350 3405 3407 3371 3421 3387 3495 3477 3415 3364 3343 3321 3288 3257 3229 3190 3244 3245 3228 3320 3404 3454 3480 3544 3566 3543 3624 3650 3625 3542 3514 3492 3513 3474 3399 3382 3400 3473 3580 3472 3490 3447 3451 3401 3416 3450 3383 3384 3259 3227 3187 3161 3111 3058 3146 3130 3178 3164 3278 3372 3279 3310 3374 3373 3388 3329 3212 3263 3274 3231 3213 3262 3246 3165 3191 3113 3175 3207 3208 3209 3174 3206 3275 3290 3243 3192 3189 3226 3289 3242 3256 3304 3255 3188 3273 3305 3325 3345 3294 3261 3296 3309 3328 3422 3406 3499 3455 3609 3653 3730 3700 3760 3699 3671 3584 3520 3519 3458 3608 3456 3481 3498 3581 3540 3476 3517 3651 3605 3602 3558 3536 3475 3420 3385 3402 3368 3437 3435 3418 3403 3438 3478 3453 3489 3491 3452 3494 3564 3606 3669 3697 3668 3607 3626 3516 3496 3518 3538 3561 3419 3386 3347 3367 3365 3601 3488 3774 3728 3510 3537 3449 3433 3448 3434 3436 3351 3457 3482 3439 3479 3497 3603 3579 3560 3511 3493 3515 3539 3541 3559 3604 3665 3562 3583 3582 3512 3535 3557 3622 3649 3666 3648 3738 3686 3718 3761 3716 3748 3750 3739 3717 3729 3698 3628 3565 3563 3623 3667 3684 3627 3652 3715 3670 3567 3685 3763 3786 4011 4037 4071 4083 4150 4143 4172 4008 3987 3986 3957 4165 4324 4259 4270 4251 4187 4166 4198 4210 4088 4049 4010 3997 3995 4009 3996 3933 3988 3994 4059 4095 4186 4142 4197 4221 4234 4235 4232 4250 4233 4164 4323 4371 4322 4283 4141 4105 4156 4112 4171 4220 4282 4281 4258 4310 4185 4229 4301 4343 4413 4284 4285 4466 4383 4500 4531 4488 4459 4530 4589 4616 4566 4591 4553 4501 4543 4590 4494 4515 4481 4451 4425 4443 4487 4575 4662 4683 4654 4631 4672 4748 4704 4696 4712 4661 4632 4493 4560 4588 4607 4622 4729 4803 5015 4919 4929 4874 4888 5058 5022 5059 5023 5125 5124 5142 5131 5056 5057 5102 5014 4850 4849 4810 4790 4789 4802 4801 4822 4840 4828 4829 4904 4903 4848 4864 5020 5021 5054 5123 4951 4902 4950 5041 4987 5109 5141 5151 5080 5013 5055 5177 5291 5240 5152 5103 5060 5089 5153 5091 5161 5090 5110 5143 5216 5236 5210 5231 5249 5264 5245 5305 5395 5431 5398 5380 5343 5359 5370 5409 5417 5400 5436 5365 5374 5379 5399 5478 5471 5509 5535 5524 5473 5460 5466 5459 5472 5464 5428 5407 5389 5486 5507 5592 5500 5491 5465 5408 5422 5426 5490 5463 5489 5488 5545 5632 5649 5601 5557 5506 5552 5650 5733 5815 5868 5930 5899 5932 5876 5951 5900 5856 5997 5990 6027 6019 6054 6086 6071 6033 6020 6038 6012 5971 5995 5912 5913 5939 5940 5928 5984 6002 6052 6043 6031 6007 6016 6046 6070 6051 6062 6056 6010 6030 6011 6025 6042 6063 6083 6090 6093 6045 6024 6040 6041 6069 6068 6076 6103 6109 6116 6111 6114 6112 6117 6096 6102 6097 6092 6059 6110 6106 6108 6091 6113 6105 6115 6066 6015 6023 6050 6061 6067 6080 6089 6101 6087 6075 6058 5800 5847 5867 5838 5911 5959 5993 5979 5994 5926 5827 5883 5662 5625 5663 5874 5927 5680 5558 5585 5514 5602 5546 5586 5528 5452 5430 5453 5515 5565 5553 5593 5548 5595 5634 5673 5653 5714 5715 5742 5723 5849 5747 5789 5741 5771 5787 5735 5734 5697 5779 5802 5817 5651 5914 5901 5915 6021 6004 5952 5972 5916 5884 5962 5961 5877 5869 5816 5786 5801 5828 5769 5767 5766 5950 5929 5996 6017 6026 6037 6018 6053 6077 6032 6008 5960 5931 6003 5875 5840 5768 5740 5778 5770 5848 5841 5803 5709 5698 5710 5721 5757 5756 5819 5804 5829 5788 5818 5746 5722 5681 5664 5699 5652 5716 5820 5780 5941 5953 5980 5918 5973 5963 6009 6013 5985 6022 5991 5943 5986 5981 5942 5903 5992 5906 5881 5886 5888 5908 5885 5974 5965 5954 5966 5946 5891 5890 5889 5860 5921 5934 5859 5805 5823 5832 5887 5945 5955 5935 5852 5844 5861 5862 5871 
