eg7146.tsp
cities: 7146
runs: 100
avg cost: 367417
avg steps: 9782.77
best: 325139

Best route:
5187 5232 5117 5213 5359 5042 5023 5097 5045 5138 5189 5162 4879 4958 5014 4927 4679 4734 4719 4696 4911 4936 4884 4828 4857 4745 4903 5098 5201 5288 5607 5643 5700 5877 5965 5906 5775 5828 6012 5871 5886 5806 6142 5888 5878 5829 5791 5763 5792 5671 5611 5761 5606 5418 5434 5350 5419 5456 5599 5650 5904 5901 5897 5993 6048 6251 6127 6264 6385 6414 6386 6467 6482 6555 6493 6312 6404 6313 6222 6149 6090 6174 6089 6009 6084 6339 6267 6138 6233 6098 5916 5794 5863 5683 5980 5868 5742 5500 5392 5155 5204 5417 5375 5312 5604 5857 5859 6013 6049 6148 6198 6119 6279 6189 6114 6091 5930 6010 6101 6033 5844 5903 5743 5428 5648 5709 5654 5585 5436 5516 5485 5546 5620 5701 5609 5835 5809 5946 6025 6085 5988 6193 6162 5950 6001 5938 5992 5940 5801 5771 5729 5479 5482 5605 5666 5523 5349 5430 5537 5734 5782 5808 5730 5663 5769 5813 5735 5708 5786 5717 5616 5665 5669 5907 5726 5608 5597 5561 5494 5524 5484 5576 5536 5534 5416 5563 5699 5603 5519 5591 5614 5811 5756 5799 5725 5554 5327 5253 5321 5226 5402 5429 5495 5446 5582 5655 5776 5660 5517 5447 5415 5423 5263 5509 5641 5530 5407 5441 5467 5552 5276 5192 5104 5167 5240 5152 4999 4839 4924 5214 5301 5250 5238 4935 4947 4918 4854 4965 4942 5041 5066 5114 5095 5111 4964 4968 5007 5159 5125 5164 4919 5146 5044 5058 5028 4906 4814 4939 4841 4823 5264 5357 5210 5297 5265 5322 5123 5094 4861 5008 4917 4779 4907 4997 4926 4949 4858 4902 4963 4880 5137 5231 5340 5558 5079 5274 5311 5492 5439 5565 5971 6021 5825 5997 6069 6006 6259 6300 6440 6314 6396 6397 6262 6216 6064 5910 5973 5913 5755 5668 5803 5522 5707 5900 5824 5867 6038 6059 6076 5777 5896 5926 5812 5670 5789 5995 6164 6136 6116 6040 6135 6161 5979 6109 6170 6175 6244 6453 6413 6489 6449 6549 6626 6595 6637 6625 6558 6734 6787 6839 6831 6751 6677 6851 6862 6996 6992 6895 6939 6882 6752 6759 6795 6540 6282 6325 6407 6346 6335 6147 6133 6000 6088 6188 6232 6293 6460 6639 6663 6661 6669 6783 6486 6387 6270 6234 6254 6080 6218 6326 6494 6347 6537 6576 6419 6176 6061 5921 5838 5774 5525 5566 5583 5772 6042 5951 6117 6150 6026 5927 5642 5680 5719 5757 5526 5468 5398 5346 5081 5290 5291 5082 5212 5470 5219 4957 5073 5215 4888 4825 4894 4856 4796 4645 4662 4775 4711 4730 4614 4846 5040 4912 4788 4362 4193 3939 3865 4082 4122 4211 4418 4475 4675 4736 4571 4464 4443 4192 4263 3901 3967 4056 4145 4113 4130 4265 4348 4562 4646 4759 4720 4914 5133 5063 5193 5318 5426 5420 5328 5194 5083 5207 5085 5202 5235 5324 5381 5550 5651 6180 6330 6466 6477 6285 6007 5848 5592 5849 6052 6190 6517 6723 6610 6577 6611 6612 6712 6614 6402 6432 6252 6403 6442 6334 6357 6525 6615 6698 6653 6630 6569 6506 6333 6470 6422 6520 6578 6496 6153 6070 6140 5955 5827 5574 5703 5454 5383 5326 5191 4868 4834 4724 4637 4656 4684 4670 4496 4453 4558 4508 4636 4647 4900 4904 4991 5033 5018 5088 5445 5598 5736 6126 6238 6532 6682 6491 6518 6609 6567 6409 6372 6392 6519 6683 6796 6872 6775 6745 6899 6762 6685 6585 6684 6613 6826 6815 6925 6933 6976 6973 6802 6652 6393 6447 6273 5917 5679 5567 5588 5635 5538 5502 5862 5874 5953 5787 5954 6331 6421 6329 6214 6383 6607 6401 6505 6356 6194 6255 6077 6182 6235 6050 5846 5685 5644 5469 5376 5556 5471 5472 5309 5302 5378 5547 5830 5745 5658 5847 5674 5893 5911 5864 5760 6004 5952 5923 5758 5672 5510 5562 5633 5712 5600 5764 5845 5865 5816 5885 5718 5814 5692 5690 5693 5653 5783 5793 5731 5884 5770 5508 5501 5425 5422 5477 5533 5765 5873 5922 5891 5695 5795 5684 5634 5744 5892 6078 6165 6151 6167 6297 6284 6183 6051 6092 6283 6408 6370 6375 6237 6108 6102 6121 6342 6202 6371 6348 6093 6152 6365 6551 6343 6400 6499 6516 6568 6438 6670 6807 6799 6847 6717 6680 6679 6364 6311 6263 6327 6236 6465 6514 6592 6515 6643 6662 6665 6707 6857 6970 6910 6909 6865 6810 6694 6777 6761 6879 6829 6871 6902 6994 7003 6919 6947 6955 6964 7019 7041 7043 7099 7109 7129 7114 7121 7136 7112 7117 7119 7143 7115 7134 7118 7122 7116 7131 7128 7132 7144 7142 7107 7106 7141 7127 7138 7113 7120 7133 7130 7097 7095 7050 7027 7032 6995 7052 6998 6969 6940 6929 7002 6760 6744 6678 6650 6824 6736 6721 6700 6722 6606 6476 6420 6464 6463 6597 6697 6835 6890 6642 6381 6428 6446 6382 6181 6087 5989 6071 6044 6163 5861 6036 5967 5983 6003 5673 5694 5766 5632 5601 5449 5613 5587 5377 4979 4931 5084 5156 5275 5208 5163 5451 5149 5267 5239 5325 5065 5071 4863 4980 5105 4981 5168 5004 4876 4723 4722 4683 4638 4522 4315 4375 4588 4495 4520 4440 4427 4203 4100 4241 4168 4103 3996 3999 3938 3878 3783 3742 3692 3624 3739 3762 3817 3784 3519 3438 3488 3288 3301 3385 3409 3484 3530 3449 3552 3507 3553 3485 3564 3592 3631 3544 3584 3632 3395 3523 3554 3593 3543 3503 3417 3729 3611 3702 3646 3802 3709 3683 3675 3759 3744 3694 3737 3786 3807 3718 3595 3224 3689 3803 3852 3941 3886 4065 3787 3911 3834 4016 4307 4345 4238 4271 4008 4011 3921 3988 4156 4071 4180 4173 4028 3970 4035 3761 3894 4004 3922 4252 4376 4357 4308 4280 4372 4249 4167 4196 4031 4007 4074 4084 4036 4161 4078 4235 4285 4344 4407 4184 4098 4064 4015 3766 3830 3885 3997 4159 4005 4061 4172 4135 4182 4108 4134 3969 3876 3785 3987 4059 4133 3968 4040 4094 4132 3930 3867 3601 3712 3813 3705 3623 3551 3442 3419 3473 3617 3693 3645 3541 3390 3268 3508 3656 3672 3583 3539 3445 3496 3542 3352 3359 3279 3180 3275 3192 3204 3221 3271 3319 3415 3349 3249 3250 3326 3391 3354 3403 3244 3282 3172 3225 3123 3144 3170 3219 3161 3199 3141 3182 3038 3074 3153 2993 3005 2881 2857 2954 2955 2937 2851 2875 2934 2966 2912 2759 2777 2720 2617 2643 2706 2565 2539 2390 2352 2388 2365 2421 2300 2324 2328 2364 2405 2515 2543 2572 2575 2477 2492 2470 2468 2546 2615 2611 2610 2573 2556 2458 2476 2500 2502 2491 2542 2555 2558 2493 2498 2568 2554 2618 2685 2675 2716 2662 2784 2783 2683 2705 2723 2802 2770 2931 2864 2778 2732 2709 2840 2943 2841 2810 2569 2566 2644 2786 2734 2671 2887 2878 2731 2665 2624 2711 2629 2622 2595 2609 2593 2738 2839 2768 2760 2928 2961 3132 3157 3081 3107 3009 3021 2978 2965 3020 2963 2975 2994 2863 2652 2564 2495 2478 2571 2557 2563 2638 2686 2659 2658 2582 2713 2636 2536 2562 2744 2876 2901 2968 2870 2951 2952 3232 3312 3140 3168 3080 3056 3119 3195 3181 3057 3077 3026 3129 3091 3120 3148 3145 3357 3313 3098 2838 2820 2905 2941 3040 2906 2882 2702 2796 2795 2918 2953 2973 3004 3079 3118 3105 3215 3070 3102 2904 2717 2701 2519 2553 2588 2589 2637 2674 2758 2739 2944 2903 2836 2927 2835 2676 2682 2780 2902 3055 2950 2917 3067 3031 3090 3054 2996 3147 3286 3139 3238 3176 3295 3223 3178 3387 3377 3370 3163 3231 3265 3239 3043 3084 3179 3162 3254 3413 3345 3311 3208 3243 3241 3300 3104 3117 3099 3125 2985 2794 2747 2698 2497 2394 2485 2598 2561 2656 2505 2560 2424 2260 2178 2179 2176 2191 2200 2264 2273 2274 2303 2367 2407 2401 2357 2387 2344 2294 2322 2277 2336 2337 2396 2366 2386 2455 2461 2462 2484 2479 2520 2494 2429 2358 2302 2272 2236 2215 2230 2242 2269 2270 2241 2238 2201 2213 2190 2222 2195 2216 2237 2234 2140 2148 2129 2111 2138 2085 2101 2121 2144 2153 2146 2125 2122 2070 2042 2067 2078 2086 2133 2134 2132 2156 2181 2267 2240 2332 2397 2345 2295 2246 2276 2248 2271 2263 2247 2196 2262 2218 2219 2232 2173 2199 2155 2150 2169 2130 2147 2135 2113 2076 2137 2108 2105 2031 2030 2020 1987 1995 2004 2014 2096 2083 2099 2075 2117 2136 2207 2249 2221 2268 2286 2316 2243 2209 2187 2208 2193 2194 2259 2258 2297 2298 2325 2350 2383 2456 2437 2417 2444 2570 2655 2608 2583 2612 2680 2651 2725 2884 2984 3032 3016 2964 3003 3071 2972 2971 3008 3165 3242 3351 3309 3336 3408 3582 3609 3659 3468 3325 3258 3229 3305 3461 3433 3469 3521 3597 3625 3782 3725 3733 3777 3738 3412 3400 3454 3361 3467 3386 3440 3261 3193 3190 3167 3108 2940 3045 3103 2989 2948 3086 3111 3015 3050 3283 3174 3096 3169 3049 3018 3024 3207 3278 3331 3196 3154 3194 3171 2977 3027 2779 2729 2831 2625 2594 2510 2517 2463 2513 2605 2533 2693 2893 2742 2691 2661 2733 2708 2724 2690 2613 2466 2521 2518 2631 2689 2722 2688 2803 2888 2890 2891 2889 2999 2988 2817 2914 2830 2677 2775 2883 2728 2874 2960 2962 2924 2678 2633 2616 2626 2532 2531 2509 2474 2549 2630 2641 2591 2670 2578 2471 2447 2371 2398 2392 2441 2438 2415 2435 2443 2472 2551 2590 2660 2634 2597 2607 2692 2752 2726 2672 2753 2799 2892 2932 2754 2826 2787 2792 2833 2782 2673 2781 2897 2860 2681 2640 2663 2694 2896 2879 2936 2859 2856 2894 2832 2746 2898 2913 2861 2699 2581 2579 2650 2552 2580 2606 2718 2657 2755 2749 2756 2700 2635 2687 2834 2886 2930 2776 2757 2730 2714 2837 2679 2646 2769 2668 2750 2712 2599 2627 2522 2431 2480 2428 2440 2382 2473 2540 2508 2496 2454 2422 2430 2451 2210 2548 2501 2707 2785 2751 2703 2602 2664 2850 2842 2915 2825 3012 2877 2654 2623 2603 2619 2601 2761 2773 2800 2809 2807 2801 2790 2869 2774 2819 2793 2763 2845 2764 2844 2853 2788 2798 2791 2818 2885 2858 2735 2805 2740 2816 2808 2516 2771 2804 2811 2745 2748 2762 2852 2867 2843 2922 3106 3280 2909 2910 2957 2846 2907 2958 2956 2908 2847 2848 3065 3480 3653 4137 4220 4221 4136 4222 3979 3318 3007 2959 2911 2849 2639 2380 2233 2353 2381 2587 2544 2452 2545 2586 2704 2765 2423 2189 2188 2098 2151 2023 2047 1998 2115 2123 2046 1964 1963 1977 1938 1924 1939 1945 1930 1929 1923 1931 1988 1900 1906 1874 1840 1764 1425 1599 1358 1207 1160 943 1113 1126 1283 1087 998 1070 1217 1413 1388 1422 1799 1862 1907 1913 2523 4062 1946 3256 5968 6524 6166 6242 6111 5661 5639 5706 5780 5586 5141 5103 5183 5140 5132 5062 4969 4896 5013 4892 4583 4657 6272 6376 6434 6542 6425 6241 4398 4499 4698 4676 5271 5386 5345 5093 4821 5752 5514 5506 4530 4498 4290 4304 4358 4460 4428 4518 4381 4422 4179 4219 4305 4218 4217 4044 3918 3790 3722 3796 3791 3995 3765 3875 3873 3976 3975 4021 3924 3943 3956 3837 3851 3874 3736 3651 3650 3594 3518 3479 3788 3618 3649 3589 3558 3676 3616 3499 3477 3292 3302 3130 3126 3159 3183 3247 3393 3451 3504 3526 3823 3703 3610 3578 3459 3522 3590 3416 3428 3437 3487 3457 3756 3871 4013 4033 3973 3870 3904 3957 4097 3971 3772 3799 3696 3429 3476 3392 3382 3355 3337 3296 3206 3218 3255 3329 3394 3478 3517 3533 3462 3626 3673 3587 3510 3721 3586 3917 3983 3972 4162 4080 3859 3836 3984 3861 3814 3648 3628 3560 3559 3524 3423 3317 3260 3187 3191 3320 3321 3201 3430 3497 3571 3495 3671 3546 3664 3647 3314 3263 3217 3245 3251 3226 3333 3347 3516 3607 3537 3750 3882 3947 4073 4106 4125 4109 3950 4142 4226 4195 4435 4354 3880 3868 3907 3858 3835 3854 3879 3808 3747 3630 3897 3899 3869 3849 4223 4266 4543 4465 4045 4273 4060 4070 4231 4024 4092 4131 4353 4343 4580 4563 4468 4833 4767 4746 4789 5139 5198 4883 4929 4774 4757 4806 4655 4541 4539 4589 4525 4451 4301 4493 4436 4314 4283 4190 4213 4154 4057 4027 3818 3937 3915 3916 3998 4115 4212 4181 4272 4116 4020 3743 3540 3642 3641 3660 3470 3447 3728 3633 3770 3764 3528 3662 3771 3643 3644 3472 3414 3389 3287 3441 3443 3615 3550 3655 3549 3515 3388 3290 3240 3334 3310 3378 3308 3471 3600 3760 3903 4047 4177 4043 4091 3905 3843 4120 4140 4434 4615 4626 4654 4653 4494 4395 4215 4394 4326 4214 4058 4147 4077 4086 4104 3942 3821 3816 3780 3986 3797 3812 4055 3909 4002 4069 3745 3933 4118 4110 4151 4415 4306 4202 4425 4417 4533 4620 4567 4585 4247 4459 4519 4339 4319 4377 4613 4449 4469 4409 4923 5060 4956 5113 5121 4954 4842 4661 4685 4473 4244 4153 3929 3779 3535 3536 3512 3384 3294 3353 3340 3360 3619 3687 3604 3706 3686 3864 3992 4236 3945 4157 3890 4012 4023 3820 3752 3575 3723 3579 3338 3367 3272 3248 3299 3446 3529 3680 3775 3717 3483 3222 3158 3138 3046 3112 3175 3051 2995 3113 3078 3177 3114 3230 3307 3426 3306 3346 3236 3001 3000 2983 3052 2990 3037 3025 3002 2969 2929 2980 2899 2900 2822 2949 2987 3116 3093 3115 3076 3213 3237 3146 3053 3088 2895 2696 2695 2621 2550 2642 2567 2620 2648 2604 2628 2697 2666 2534 2467 2448 2356 2285 2231 2245 2261 2220 2223 2197 2212 2182 2107 2110 2077 2041 2052 2038 2044 2050 2056 2043 2037 2003 2019 2024 2057 2036 2040 2069 2079 2102 2145 2116 2112 2119 2095 2109 2128 2163 2172 2185 2177 2164 2186 2161 2162 2168 2158 2183 2211 2139 2093 2081 2127 2143 2082 2072 2073 2094 2097 2114 2170 2124 2074 2058 2045 2039 2048 2032 1993 2021 1997 2005 1996 1986 1985 1965 1949 1941 1956 1933 1926 1925 1932 1919 1947 1948 1934 1915 1908 1914 1887 1901 1902 1892 1885 1883 1889 1893 1890 1911 1917 1918 1909 1936 1950 1980 1984 2009 2007 1971 1990 1951 1940 1970 2011 2008 2017 2035 2015 2018 1991 1992 2001 1982 1989 1994 2028 2000 1969 1968 1954 1959 1978 1979 1972 1966 1935 1957 1973 1961 1974 1962 1975 2029 2002 1983 1981 1958 1967 1960 1955 1942 1953 1952 1937 1922 1904 1928 1910 1921 1943 1927 1920 1898 1899 1896 1894 1897 1905 1912 1916 1903 1895 1881 1884 1880 1876 1875 1882 1886 1891 1888 1879 1866 1869 1871 1872 1873 1878 1877 1870 1868 1855 1851 1857 1856 1850 1831 1818 1824 1823 1797 1810 1800 1802 1815 1833 1781 1777 1791 1792 1766 1760 1761 1755 1735 1692 1640 1520 1481 1465 1467 1466 1482 1428 1407 1436 1426 1416 1454 1495 1507 1503 1463 1508 1533 1574 1562 1545 1532 1518 1502 1493 1544 1560 1559 1573 1592 1620 1652 1706 1721 1743 1775 1746 1688 1686 1773 1757 1770 1741 1772 1803 1744 1722 1723 1748 1745 1805 1811 1808 1812 1807 1749 1747 1776 1806 1793 1786 1774 1785 1804 1782 1783 1771 1784 1742 1720 1740 1701 1665 1632 1648 1633 1631 1615 1586 1614 1585 1602 1613 1389 1475 1476 1462 1478 1492 1477 1501 1452 1479 1453 1464 1505 1504 1494 1390 1398 1417 1391 1392 1393 1382 1348 1326 1332 1330 1337 1342 1336 1335 1329 1320 1306 1325 1300 1301 1296 1310 1308 1318 1314 1322 1323 1309 1315 1324 1319 1328 1356 1377 1403 1420 1414 1402 1401 1399 1408 1384 1396 1385 1397 1357 1364 1370 1378 1369 1355 1351 1334 1340 1333 1349 1341 1339 1327 1331 1343 1347 1360 1346 1338 1317 1321 1345 1352 1359 1365 1380 1373 1371 1372 1405 1404 1406 1394 1381 1374 1375 1361 1362 1366 1353 1344 1350 1354 1367 1383 1376 1363 1368 1387 1386 1379 1427 1446 1455 1437 1424 1418 1400 1419 1429 1409 1395 1410 1411 1433 1415 1434 1448 1473 1484 1459 1458 1451 1440 1444 1432 1421 1412 1430 1431 1442 1441 1435 1423 1439 1447 1498 1224 862 763 765 760 754 737 722 741 734 743 723 717 731 730 712 699 686 694 705 704 720 721 725 716 701 700 689 695 696 707 706 726 729 709 708 715 714 713 681 674 664 687 680 673 544 766 243 271 238 266 272 248 227 239 237 234 240 231 228 194 189 188 195 201 187 205 212 214 208 221 232 213 217 219 224 244 255 245 241 252 267 537 538 615 639 648 653 652 651 659 658 645 644 646 668 675 665 666 683 684 688 682 667 676 690 698 691 677 685 671 678 662 638 616 611 632 649 642 641 633 625 618 602 600 599 601 583 571 603 592 589 590 591 578 585 607 619 614 596 604 605 598 577 570 565 551 547 548 552 530 532 533 540 555 558 554 545 539 546 568 579 586 594 593 572 573 587 582 560 559 563 564 562 575 576 574 588 597 613 595 580 581 569 541 534 536 528 535 542 549 553 561 556 543 527 523 524 514 486 494 506 501 510 472 453 430 442 443 463 475 490 512 505 499 485 492 484 498 491 477 476 479 468 466 478 458 445 465 456 457 459 413 397 371 357 370 356 372 388 389 400 359 335 275 263 264 276 269 278 279 280 281 287 286 285 283 282 289 291 295 293 292 290 296 310 319 313 314 317 316 318 320 324 385 417 429 409 393 384 353 408 407 428 441 416 410 394 367 386 366 343 337 328 315 312 294 298 311 306 297 305 323 344 355 354 338 345 326 329 330 325 309 303 308 307 300 301 302 304 299 288 284 270 268 259 262 273 277 274 265 260 230 242 261 249 253 247 246 251 258 257 256 254 250 236 222 235 233 225 229 226 223 220 218 207 209 215 216 211 210 206 204 203 196 202 192 200 193 191 186 183 184 182 179 197 199 198 190 185 177 172 171 180 181 178 176 153 147 146 152 150 142 143 149 145 155 158 151 159 154 173 165 157 161 162 164 160 163 169 168 167 166 156 148 141 140 137 139 138 134 129 126 128 124 130 132 135 136 131 125 117 119 115 122 123 116 109 113 120 102 108 103 92 82 88 93 96 89 94 97 91 85 86 95 101 104 105 114 106 99 98 90 84 81 87 80 83 79 76 78 77 75 74 70 72 73 69 64 66 68 67 71 65 61 58 56 51 53 62 63 55 52 48 54 49 50 57 60 59 47 46 42 43 41 40 39 38 37 34 35 33 32 36 112 118 110 121 127 133 144 175 170 107 111 2 1 3 5 4 7 13 14 15 11 9 10 12 6 8 17 16 18 19 22 20 21 23 27 26 24 25 28 29 31 30 45 44 100 174 395 650 643 819 744 460 426 425 452 451 440 427 450 469 449 439 448 438 437 421 403 392 383 422 404 406 415 405 424 423 447 436 391 402 420 414 362 364 350 336 351 363 379 401 390 378 361 341 342 352 365 382 381 380 349 360 376 377 333 334 327 321 322 331 346 373 399 339 340 332 347 348 358 374 375 446 467 435 398 434 419 396 412 418 368 369 387 432 411 433 444 431 462 455 464 497 496 503 520 515 509 529 531 519 525 518 502 493 513 517 526 521 522 507 508 473 454 474 483 489 482 495 487 511 516 504 488 481 470 471 461 480 500 550 557 567 566 584 612 626 627 620 634 628 657 656 663 624 610 617 623 631 608 606 640 622 609 629 621 630 636 654 637 655 661 669 660 635 647 672 670 697 719 718 710 702 703 692 711 693 679 724 728 727 739 735 740 757 750 748 755 752 733 732 738 749 756 751 771 770 746 742 736 745 747 759 769 778 783 790 773 764 774 762 761 772 777 784 776 768 758 753 767 780 786 797 815 827 853 839 826 832 807 806 798 813 829 814 799 791 785 779 782 781 775 787 794 789 793 802 810 792 788 801 818 809 808 800 817 811 820 835 834 816 840 833 831 830 824 796 795 805 823 837 842 858 828 822 803 804 812 825 843 838 852 844 861 860 851 850 859 848 849 847 866 873 886 901 900 896 899 890 876 880 879 887 891 902 918 915 910 925 938 924 932 914 909 911 916 927 936 928 929 931 922 930 921 919 912 908 906 905 913 907 917 884 881 871 854 855 863 865 872 874 867 868 875 841 836 821 856 857 846 864 845 878 877 882 885 889 895 894 883 888 870 869 892 893 898 903 897 904 926 920 934 935 946 945 947 940 941 949 937 923 942 960 973 982 987 983 990 986 1003 1008 1016 999 1004 1024 1015 1014 1017 1025 1032 1026 1009 1011 1010 1018 1005 1001 995 1000 996 997 989 994 993 991 1002 992 1012 1006 1021 1041 1040 1029 1019 1020 1033 1028 1027 1043 1051 1062 1064 1057 1060 1055 1059 1052 1061 1056 1050 1075 1091 1097 1085 1067 1079 1074 1073 1063 1065 1072 1084 1086 1076 1068 1039 1030 1034 1044 1045 1046 1049 1042 1037 1038 1036 1023 1035 1047 1058 1054 1069 1071 1066 1081 1077 1080 1109 1110 1125 1120 1111 1088 1092 1083 1089 1108 1121 1128 1101 1102 1107 1122 1118 1129 1098 1082 1090 1100 1115 1117 1130 1149 1150 1166 1174 1156 1158 1167 1151 1157 1170 1161 1159 1168 1171 1183 1192 1231 1226 1244 1249 1252 1259 1242 1247 1232 1238 1246 1245 1250 1255 1263 1270 1271 1288 1272 1279 1287 1256 1257 1251 1243 1273 1295 1289 1307 1294 1264 1230 1237 1229 1206 1191 1204 1200 1190 1184 1177 1173 1172 1176 1185 1189 1194 1186 1178 1182 1193 1199 1175 1181 1180 1165 1164 1211 1221 1220 1227 1239 1240 1241 1254 1258 1253 1275 1284 1267 1266 1274 1280 1292 1302 1297 1285 1269 1260 1265 1262 1304 1312 1316 1303 1313 1311 1305 1281 1299 1298 1293 1282 1268 1277 1290 1286 1291 1276 1278 1261 1248 1215 1234 1233 1236 1219 1235 1205 1218 1223 1209 1216 1210 1225 1228 1222 1208 1203 1188 1202 1214 1187 1198 1196 1195 1213 1212 1201 1197 1179 1169 1141 1135 1143 1142 1131 1133 1132 1136 1134 1137 1124 1146 1144 1147 1145 1152 1138 1140 1139 1127 1116 1106 1119 1123 1114 1104 1103 1094 1095 1105 1112 1093 1096 1099 1078 1048 1031 1022 1013 1007 988 976 980 979 984 985 969 965 968 970 964 957 981 977 972 958 963 966 978 971 975 974 955 954 959 948 953 952 967 962 961 950 951 939 933 944 956 1148 1163 1162 1155 1153 1154 1053 5361 5074 5360 6072 5781 5875 6820 6819 6878 7009 6953 6952 7008 6951 7047 6950 7046 7029 7057 7068 7077 7084 7067 7102 7083 7045 7125 7126 7146 7124 7101 7066 7065 7076 7075 7100 1489 1516 1529 1542 1528 1515 1541 1660 1841 5840 5841 6225 5279 5394 5256 4782 4783 4204 3960 4049 3778 3961 4126 4128 4127 3962 3716 4052 3963 4296 4206 3855 4051 4573 4572 4713 4777 4705 4649 4483 4050 4205 4295 4484 4485 4535 4260 4486 4574 4714 4575 4487 4564 4970 5339 5257 5515 4835 4948 4628 4618 4264 4042 4276 4191 4143 3303 3264 3751 4386 4261 4119 4039 4255 4321 4123 4437 4423 4545 4643 4507 4631 4635 4762 4639 4797 4962 5362 5899 5833 6045 5842 5762 5678 5640 5698 5112 5216 5237 5280 5507 6060 5933 6067 6039 6118 6172 5925 5728 6079 6058 6274 6213 6208 6227 6406 6469 6290 6345 6034 6134 6075 5914 6082 6046 6144 6068 6286 6207 6361 6322 5991 6002 6226 6197 6220 6415 7085 6559 6444 6478 6507 6253 6097 6201 6120 6141 6318 6368 6352 6418 6498 6720 6767 6696 6867 6719 6693 6769 6753 6754 6768 6758 6730 6755 6897 6842 6943 6972 6957 6930 6917 6786 6896 6853 6838 6874 6921 6894 6960 6961 6916 6918 6901 6887 6813 6962 6977 6931 6928 6892 6893 6791 6780 6666 6575 6563 6628 6503 6580 6572 6673 6850 6863 6841 6927 6934 6971 7004 6987 6985 7001 7005 7018 7036 7031 7020 7039 7037 7035 7026 7006 7024 7015 7025 6948 6978 6936 6812 6834 6792 6821 6866 6779 6733 6822 6583 6627 6550 6589 6502 6315 6340 6204 6212 6023 6265 6278 6299 6341 6450 6358 6526 6603 6664 6726 6675 6512 6508 6344 6269 6456 6483 6534 6501 6573 6380 6187 6063 6103 6177 6275 6452 6319 6462 6601 6710 6781 6773 6732 6659 6564 6306 6186 6261 6221 6206 5986 6043 6074 6022 6171 6029 6035 6073 5970 5977 5928 5998 5949 6541 6500 6417 6547 6435 6426 6437 6321 6137 6145 6211 6112 6287 6473 6378 6448 6228 6199 6030 5969 5715 5459 5458 5363 5199 5108 4922 4899 4930 4898 4830 4758 4837 4810 4765 4784 4893 4716 4601 4528 4769 4405 4150 4286 4445 4169 3463 3895 4003 4148 4781 4709 4715 4634 4382 4207 4250 4298 4297 4330 4441 4369 4383 4350 4384 4385 4596 4470 3958 3805 3863 3708 3959 3809 4576 4577 4602 4456 4529 4804 4994 4852 4778 4763 5048 4764 4668 4650 4989 5499 5460 5166 5075 5364 5413 5347 5284 5224 5298 5233 5165 5170 5249 5435 5461 5486 5462 5497 5542 5627 5823 5657 5577 5754 5652 5711 5543 5491 5366 5330 5148 5315 5544 5628 5545 5573 5575 5258 5174 5261 5005 5175 5142 5024 4943 5049 5110 5463 5259 5367 5314 5078 5223 5096 4891 5151 5368 5273 5278 5260 5130 5031 4932 4838 4687 5365 5568 5626 5667 5541 5625 5647 5716 6005 6031 6016 5807 5876 6128 6363 6706 6557 6504 6600 6509 6416 6394 6459 6338 6296 6280 6281 6411 6379 6369 6258 6250 6248 6200 6032 5960 5975 5843 5788 5924 5939 5820 5984 6132 6169 6024 6099 5948 5947 5909 5612 5737 5739 5798 5768 5489 5464 5584 5465 5369 5262 5518 5372 5466 5248 5254 5160 4974 4950 5299 4941 4786 4678 4717 4605 4379 4267 4277 4281 4454 4426 4442 4341 4197 4269 4342 4322 4311 4461 4359 4438 4390 4531 4644 4872 4800 4718 4822 5015 4871 4817 4682 4753 4579 4586 4640 4749 4710 4824 4795 4793 4851 4776 4808 4813 4780 4831 4768 4750 4732 4603 4691 4598 4561 4651 4501 4514 4479 4511 4707 4864 4860 4812 4706 4975 4944 5217 5285 5300 5414 5476 5351 5177 5051 5027 5025 4680 4735 4703 4408 4365 4492 4429 4370 4399 4174 4030 4026 4198 4144 4234 4200 4149 4111 4014 3923 4032 4112 3964 3955 4208 4170 4102 4155 3850 3711 3547 3531 3420 3380 3214 3209 3036 2481 2327 2224 2278 2310 2524 2873 3029 2970 3039 3216 3122 3137 3089 3152 3151 2976 2823 2862 2926 2743 2715 2919 2979 3030 3197 3281 3381 3200 3198 3087 2982 3042 2967 2920 2824 2632 2645 2577 2614 2772 2719 2442 2459 2334 2323 2372 2343 2244 2283 2166 2165 2184 2228 2253 2225 2279 2251 2280 2341 2281 2252 2340 2254 2313 2282 2227 2202 2226 2250 2410 2339 2311 2369 2445 2370 2412 2529 2710 2527 2526 2482 2411 2312 2446 2483 2576 2721 2649 2647 2854 2981 3085 3034 3014 2855 2806 3075 3220 3276 3398 3567 3570 3460 3450 3343 3383 3493 3284 3267 3439 3677 3793 3697 3538 3505 3621 3490 3670 3569 3372 3362 3432 3448 3511 3348 3410 3667 3700 3732 3599 3773 3827 3699 3698 3731 4022 4006 4088 4068 3982 4160 4072 4034 3889 3902 4066 3748 3792 3695 3985 4114 3934 3741 3832 3856 3900 4165 4446 4457 4424 4432 4327 4622 4592 4629 4490 4688 4361 4482 4293 4351 4254 4566 4471 4488 4504 4462 4389 4388 4909 5171 5172 5076 4616 4509 4739 4569 4474 4340 4439 4648 4785 4870 4971 5034 5077 5206 5184 5173 4816 4578 4540 4163 3620 3374 3274 3369 3566 3368 3324 3227 3205 1999 2946 2998 3133 3095 3164 2991 3373 3405 3406 3173 3342 3500 3513 2684 3109 3335 3527 3848 3636 3492 3580 3407 3464 3710 3884 3888 4029 4099 3953 4227 4257 4124 4233 4387 4101 3877 4274 4373 4489 4712 4686 4664 4463 4258 4853 4973 5197 5119 5209 4995 4843 4731 4972 4844 4798 5511 5767 5649 5800 6160 6223 6543 6443 6305 5972 6139 6107 5981 5943 5872 6011 5741 5594 5578 5804 5631 5487 5532 5630 5976 6081 6395 6412 6353 6266 6268 6323 6288 6229 6230 6427 6596 6536 6430 6461 6377 6658 6633 6704 6636 6291 6041 5629 5740 5691 5961 5880 5881 5733 5480 5370 5572 5433 5371 5373 4794 4988 5122 5176 5115 4967 4890 4959 4625 4595 4526 4402 4412 4352 4325 4313 4491 4416 4355 4063 4089 4194 4152 3944 3980 4228 4129 4275 4403 4312 4380 4478 4553 4560 4433 4458 4278 4299 4268 4309 4512 4669 4608 4502 4480 4338 4251 4209 4093 4232 4334 4515 4557 4503 4452 4282 4210 4318 4378 4693 4659 4727 4521 4364 4481 4544 4559 4556 4532 4510 4542 4663 4623 4809 4826 4811 4692 4554 4733 4689 4755 4728 4771 4612 4729 4584 4740 4805 4660 4597 4527 4593 4450 4523 4699 4599 4674 4555 4500 4754 4694 4611 4681 4695 4590 4570 4621 4609 4551 4708 4945 4773 4770 4652 4641 4600 4548 4476 4413 4371 4367 4323 4239 4262 4391 4230 4237 4139 4224 4410 4333 4141 4117 4176 4121 4095 3845 3746 3735 3896 4087 4081 4076 4010 4009 3965 3928 3828 3810 3935 3883 3842 3825 3860 3948 3926 3931 4018 4075 4079 3857 3932 4017 4046 4000 3804 3913 3954 3841 3811 3774 3581 3614 3701 3749 3678 3654 3532 3427 3277 3356 3418 3269 3344 3270 3150 3149 3228 3452 3534 3494 3627 3734 3839 3798 3688 3629 3846 4085 4158 4287 4331 4374 4346 4591 4455 4430 4324 4448 4310 4332 4404 4279 4246 4259 4242 4038 3801 3946 3966 3952 3824 3674 3613 3690 3730 3669 3668 3806 3767 3685 3612 3501 3574 3561 3184 3128 1854 1821 1827 1794 1820 1819 1822 1828 1813 1796 1809 1795 1787 1758 1788 1759 1725 1724 1732 1726 1750 1708 1689 1653 1636 1671 1639 1638 1637 1690 1654 1622 1564 1519 1506 1561 1591 1590 1589 1557 1571 1617 1588 1604 1603 1618 1649 1703 1705 1704 1635 1593 1563 1546 1605 1575 1606 1596 1576 1595 1594 1650 1651 1668 1634 1619 1683 1664 1587 1570 1616 1572 1558 1531 1543 1517 1491 1490 1474 1461 1500 1530 1556 1569 1601 1647 1681 1629 1663 1682 1699 1698 1713 1736 1712 1737 1697 1679 1680 1630 1661 1662 1716 1715 1714 1718 1738 1739 1756 1717 1700 1719 1702 1684 1666 1685 1667 1669 1687 1707 1670 1621 1577 1565 1672 1691 1694 1644 1673 1581 1538 1513 1526 1548 1578 1582 1553 1537 1485 1499 1523 1487 1535 1534 1547 1521 1510 1509 1480 1496 1456 1488 1512 1536 1468 1449 1450 1483 1469 1457 1443 1438 1445 1472 1471 1470 1460 1497 1511 1486 1514 1525 1551 1527 1539 1550 1552 1549 1524 1540 1579 1554 1584 1609 1646 1655 1642 1610 1626 1612 1627 1624 1623 1656 1641 1598 1600 1566 1522 1597 1607 1608 1580 1568 1583 1567 1555 1611 1643 1625 1628 1645 1675 1659 1674 1710 1730 1752 1751 1767 1762 1754 1753 1709 1711 1779 1768 1729 1733 1731 1693 1678 1677 1658 1657 1695 1727 1728 1696 1676 1778 1780 1790 1798 1789 1763 1765 1734 1769 1801 1825 1836 1843 1835 1844 1848 1837 1832 1817 1816 1814 1829 1830 1834 1842 1847 1849 1860 1863 1867 1859 1853 1846 1845 1838 1858 1861 1864 1865 1852 1839 1826 2006 2022 2060 2034 2053 2051 1944 1976 2087 2335 2331 2391 2389 2379 2355 2330 2309 2296 2363 2404 2378 2427 2290 2376 2351 2293 2306 2354 2409 2433 2460 2450 2538 2537 2377 2426 2464 2504 2469 2449 2319 2288 2235 2257 2318 2287 2256 2255 2349 2420 2400 2375 2360 2385 2490 2503 2489 2487 2514 2535 2425 2418 2317 2374 2395 2305 2289 2402 2408 2384 2399 2439 2475 2434 2486 2346 2403 2347 2338 2308 2266 2307 2348 2373 2499 2488 2465 2419 2416 2457 2453 2506 2511 2436 2432 2362 2368 2329 2321 2333 2299 2359 2292 2393 2406 2361 2315 2314 2265 2304 2301 2320 2326 2275 2284 2192 2239 2198 2217 2175 2171 2174 2149 2160 2152 2141 2142 2180 2206 2154 2157 2092 2071 2089 2100 2059 2064 2054 2010 2026 2025 2012 2027 2016 2055 2103 2104 2080 2063 2033 2049 2068 2062 2065 2090 2088 2118 2084 2091 2159 2106 2131 2167 2126 2061 2066 2013 2120 2203 2205 2204 2229 2214 2291 2342 2413 2414 2530 2737 2669 2528 2525 2741 2827 2916 2923 2986 3083 3048 3131 2921 2872 2812 3023 3142 3101 3135 3136 2947 2935 2925 2939 2828 2829 2997 3134 3143 3110 3156 3424 3502 3375 3322 3252 3202 3285 3257 3379 3358 3339 3332 3212 3234 3453 3596 3679 3776 3573 3638 3576 3514 3908 3914 4054 3919 3704 3940 3826 3565 3753 3634 3598 3637 3829 3691 3769 3658 3635 3465 3726 3727 3781 3815 3891 3639 3376 3304 3365 3235 3466 3363 3548 3657 3622 3681 3520 3640 3724 3713 3831 3866 3910 3844 4083 4229 4225 4146 4256 4302 4291 4396 4356 4248 4447 4411 4303 4360 4317 4505 4472 4701 4658 4632 4690 4742 4665 4760 4673 4677 4617 4466 4667 4697 4524 4292 4401 4550 4497 4289 4253 4270 4363 4565 4288 4516 4741 4536 4606 4421 4347 4400 4582 4549 4702 4772 4925 4862 5035 4847 5022 4983 4761 4725 4581 4513 4414 4406 4552 4444 4216 4166 4243 4368 4185 4067 3991 3881 3757 3605 3719 3800 3707 3795 3665 3588 3482 3401 3402 3498 3486 3562 3422 3455 3475 3397 3327 3298 3297 3273 3330 3350 3481 3474 3293 3328 3315 3266 3259 3233 3341 3316 3371 3444 3411 3431 3608 3847 3768 3754 3990 4037 3981 3893 3819 3862 4019 3892 3661 3715 3545 3556 3720 3740 3833 3912 3887 3682 3714 3794 3663 3591 3606 3555 3421 3396 3404 3506 3436 3568 3491 3425 3458 3603 3684 3577 3585 3602 3652 3434 3399 3435 3364 3456 3291 3262 3127 3017 2945 2942 2813 2507 2596 2767 2766 2797 3011 2727 2667 2592 2585 2600 2584 2559 2512 2547 2541 2574 2653 2821 2880 2933 2938 3121 3210 3185 3100 3094 3019 3289 3366 3323 3211 3160 3186 3155 2974 3022 3072 3166 3033 3010 3047 3058 3092 3059 3188 2992 3060 3069 3035 3028 3124 3063 3062 3064 3203 3041 3061 3073 3097 3066 3006 3082 3044 3068 3013 2866 2865 2815 2868 2814 2736 2789 2871 3189 3246 3253 3489 3666 3572 3525 3563 3509 3557 3822 3989 4366 4537 4642 4594 4568 4506 4349 4329 4337 4183 4328 4547 4201 4025 4534 4431 4538 4420 4320 4335 4199 4284 4397 4175 4041 3898 3872 3974 3840 3936 3838 3789 3906 3977 3978 3925 3951 4090 4189 4178 4188 4336 4048 4186 4187 4604 4878 5070 5784 5822 5751 5689 5773 5905 6020 6055 6158 6196 6159 5937 5853 5821 6027 5852 5688 5421 5293 5181 5230 5222 5195 5056 5410 5295 5106 4953 5017 4916 4845 4836 4889 4792 5012 5158 5003 5037 5064 5294 5443 5474 5490 5475 5343 5329 5400 5401 5153 5245 5136 5182 5091 5697 5645 5452 5483 5306 5001 5002 5011 4738 4855 4985 5292 5387 5353 5354 5403 5348 5388 5411 5406 5409 5389 5408 5520 5746 5753 6257 6423 6545 6586 6746 6737 6870 6840 6941 6938 6765 6654 6876 6816 6798 6844 6688 6714 6552 6424 6309 6298 6113 5810 5957 5956 6018 5918 5839 5802 5636 5553 5531 5457 5405 5358 5528 5615 5722 6122 6125 6455 6635 6561 6521 6522 6562 6632 6571 6497 6804 6836 6884 6900 6945 6965 6908 6886 6993 7021 7013 7017 6997 6983 6982 7030 6956 6904 6877 6937 6891 6913 6942 6912 6873 6881 6981 7000 6906 6915 6924 6875 6907 6880 6827 6756 6764 6702 6701 6686 6638 6763 6920 6778 6803 6797 6655 6533 6593 6492 6616 6468 6570 6210 6239 6053 6332 6302 6203 6276 6104 6094 6184 6143 6015 6086 6195 6037 6271 6349 6485 6622 6623 6729 6772 6959 6989 7022 7053 7051 7049 7028 7033 7054 7059 7071 7055 7070 7061 7080 7074 7072 7078 7034 7042 7048 7060 6991 6984 7014 7012 6980 6974 6889 6990 7016 7023 6986 6999 6968 6979 6944 6988 7038 7044 6966 6935 6963 6852 6846 6782 6735 6748 6828 6914 6888 6967 6949 6864 6646 6645 6351 6367 6472 6574 6560 6687 6579 6471 6713 6495 6523 6718 6811 6624 6617 6373 6439 6656 6587 6277 6295 6105 6054 6154 6106 6243 6224 6320 6336 6337 6219 6179 5826 5851 5589 5676 5860 5687 5723 5749 5959 6240 6095 6156 6129 6157 6168 6247 6155 5623 5540 5686 5713 5748 5637 5559 5557 5384 5244 5393 5304 5390 5580 5638 5622 5610 5593 5817 5912 5958 6008 5934 5493 5355 5282 5310 5399 5331 5092 5196 5283 5246 5432 5317 5513 5529 5705 5677 5581 5344 5453 5664 5571 5551 5818 6289 6130 6256 6185 6303 6350 6433 6806 6800 6808 6747 6709 6883 6848 6905 6946 6932 6922 6926 6923 6975 6859 6855 6096 5999 5987 5894 5932 6123 6056 5856 6766 6588 6671 6057 5962 5858 5785 5895 5935 6028 5908 5936 5855 5866 5890 5945 5656 5879 5942 5590 5778 5797 5779 5854 5805 5819 5990 5882 5619 5738 5646 5750 5564 5438 5272 5057 4743 4607 4627 4517 4546 4840 5118 4901 5188 5157 5385 5296 5504 5505 5503 5596 5624 5570 5569 5696 5898 5832 6019 5994 6066 5714 5560 5702 5747 5996 5931 5850 5831 6014 5941 5796 5815 5732 5527 5307 5342 5320 5316 5498 5431 5356 5251 5337 5270 5102 4998 5020 4751 5000 5303 5229 5221 5036 5134 5030 4895 4960 4992 4865 4915 4849 4984 4961 4934 4986 5129 5135 5180 5323 5305 5247 5150 5053 5147 5128 5054 5055 4910 4877 4748 4624 4671 4726 4704 4737 4933 4790 5016 4966 4921 4848 5269 4993 4820 5019 5341 5205 5090 5046 4799 4819 4630 4791 5089 4982 5268 5319 5179 5228 5478 5336 5382 5087 4867 5127 5621 5681 5602 5549 5548 5675 5450 5086 5021 5234 5380 5243 5047 4875 5006 4756 4818 4815 4721 4700 4747 4393 4610 4850 4940 4885 4803 4946 5379 5539 5473 5617 5721 5720 5889 6209 6301 6294 6328 6366 6608 6651 6681 6644 6584 6556 6814 6911 6858 6869 6825 7007 7011 7010 7087 7104 7082 7098 7096 7092 7086 7079 7090 7139 7140 7145 7103 7108 7111 7105 7110 7123 7063 7040 7137 7135 7094 7093 7062 7056 7058 6793 6724 6749 6629 6582 6510 6598 6649 6511 6316 6246 6355 6192 6231 5902 6124 5919 5944 5704 5579 5521 5481 5682 5870 5982 5963 5915 5869 5929 5834 5710 5512 5440 5618 5662 5724 5595 5759 5837 5978 6215 6115 6100 6374 6399 6431 6191 6304 6317 6410 6474 6480 6362 6354 6539 6429 6546 6384 6488 6479 6553 6692 6832 6703 6620 6695 6674 6689 6648 6725 6770 6757 6743 6845 6903 6776 6856 6436 6457 6481 6445 6390 6538 6566 6716 6668 6621 6667 6602 6490 6529 6565 6548 6590 6647 6837 6774 6801 6705 6728 6691 6711 6599 6618 6451 6324 6292 6249 6310 5920 5966 6110 6083 6173 5974 5887 6017 6047 6065 6178 6131 6146 6205 6260 6308 6359 6554 6750 6784 6805 6823 7073 7064 7088 7089 7091 7081 7069 6954 6741 6785 6657 6727 6860 6738 6699 6794 6817 6861 6830 6809 6849 6790 6868 6818 6672 6641 6405 6531 6634 6771 6833 6843 6640 6619 6742 6885 6789 6854 6958 6898 6715 6690 6458 6544 6631 6605 6535 6475 6454 6581 6604 6708 6740 6360 6441 6388 6398 6484 6591 6389 6530 6594 6527 6660 6739 6676 6788 6731 6528 6487 6513 6391 6245 6307 6217 6062 5964 5836 5985 5883 5790 5727 5659 5555 5448 5442 5535 5287 5203 5227 5144 4886 4897 5039 5120 5143 5396 5437 5488 5391 5412 5374 5050 4987 4928 4869 4937 4978 5009 4977 5059 5061 5052 5072 4908 5038 5178 5236 5286 5225 5352 5397 5444 5335 5218 5186 5211 5101 5116 4976 4801 4633 4666 4752 4744 4802 4866 4881 4996 5100 5145 5169 5190 5029 4955 4832 4859 5026 5154 5161 5241 5289 5308 5427 5455 5252 5068 5032 5099 5109 5126 5043 5255 5266 5242 5424 5313 5404 5333 5334 4990 4787 4672 4766 4477 4619 4392 4300 4316 4171 4053 3994 3758 3853 3949 4164 4107 4138 4294 4419 4096 4240 4105 4001 3920 3755 3763 3993 3927 4245 4467 4587 4829 4873 5010 4874 4913 5080 5107 4952 4951 4807 4827 5067 5124 4938 4882 4887 4920 4905 5131 5185 5069 5220 5281 5395 5496 5338 5332 5277 5200 
