ca4663.tsp
cities: 4663
runs: 100
avg cost: 2.65844e+06
avg steps: 6689.47
best: 2334191

Best route:
1348 1381 1370 1359 1344 1334 1340 1371 1372 1297 1311 1341 1310 1300 1373 1315 1390 1268 1178 1262 1316 1471 1421 1527 1627 1455 1614 1700 1860 1818 1907 1859 1807 1870 1872 1844 1871 1862 1863 1875 1861 1808 1937 1926 1936 1833 1416 1378 1417 1343 1279 1103 1094 1058 755 924 925 875 817 915 951 972 1155 1270 1253 1077 898 908 1078 985 856 967 952 1144 1143 943 926 669 623 756 818 678 583 462 506 467 466 520 688 578 533 577 581 653 793 984 907 654 629 668 721 548 641 895 950 1138 929 1057 1093 1308 1196 1451 1405 1424 1447 1446 1445 1485 1626 1613 1518 1571 1802 1643 1674 1690 1718 1743 1711 1924 2008 2313 2087 2182 2233 1898 1495 1624 1636 1632 1658 1531 1515 1514 1523 1649 1788 1612 1526 1584 1596 1537 1570 1605 1651 1669 1736 1781 1782 1552 1583 1625 1516 1525 1650 1517 1488 1507 1543 1496 1489 1441 1411 1484 1483 1461 1427 1347 1433 1363 1350 1380 1389 1388 1324 1368 1362 1379 1338 1357 1247 1275 1214 1176 1154 1230 1323 1260 1240 1295 1367 1420 1406 1391 1317 1225 1296 1261 1206 1269 1281 1254 1301 1342 1215 1162 1236 1106 1179 1026 1013 711 589 590 722 555 582 832 944 909 930 987 889 758 643 624 542 591 670 690 601 556 521 549 732 846 833 723 642 655 899 945 1041 986 1005 999 1015 1079 1014 866 782 867 896 847 884 656 697 772 771 857 680 695 561 550 534 503 468 524 523 525 603 736 726 644 507 485 502 900 770 691 724 760 672 671 569 602 727 821 783 692 696 786 657 699 645 543 681 745 734 712 513 679 757 689 759 733 946 1027 1159 1108 1132 1087 1145 1109 918 973 931 819 795 988 932 876 794 762 746 693 630 744 725 694 631 820 804 868 974 937 902 1019 1160 1065 1059 1095 1335 1250 1043 975 917 839 852 750 805 751 635 614 527 544 633 739 748 684 797 776 586 478 423 526 451 509 470 469 592 823 885 903 910 1318 1257 1207 1189 1197 1242 1120 1183 1544 1783 2519 1839 1893 1878 1971 1739 1766 1738 1752 1777 1820 1877 1784 1811 1791 1790 1775 1987 2108 2088 2044 2043 2003 1929 1826 1901 2064 1985 1873 1827 1776 1778 1712 1478 1430 1326 1462 1545 1597 1758 1713 1759 1638 1615 1665 1664 1767 1740 1692 1659 1606 1637 1519 1508 1532 1566 1458 1437 1364 1156 1112 1220 1184 1067 1290 1243 1272 1170 961 905 948 1234 1157 1190 1233 1237 1266 1134 1028 1096 1051 1140 1186 1291 1320 1375 1303 1319 1265 1198 1216 841 753 675 606 597 416 528 482 433 427 355 317 224 236 302 215 235 192 285 324 441 354 314 313 323 322 353 393 375 336 223 253 266 250 337 309 259 231 255 386 334 335 342 321 263 258 254 211 233 343 344 338 387 572 429 268 251 240 234 195 193 424 481 564 767 827 731 647 858 976 934 752 904 806 705 413 473 445 421 303 270 291 301 350 403 394 328 349 286 243 203 206 227 239 267 213 202 246 281 283 284 412 219 214 282 348 432 514 486 458 496 596 661 840 480 563 778 497 325 264 364 388 389 448 487 615 459 559 616 464 488 420 365 287 269 225 207 366 339 237 275 278 276 292 340 228 196 194 252 294 247 226 208 178 271 362 414 417 404 415 329 345 315 244 217 173 143 168 190 133 127 169 160 151 154 216 183 182 165 184 161 150 123 144 95 100 93 90 82 79 86 92 80 70 69 76 50 153 145 157 142 185 170 166 152 156 171 175 186 212 199 158 172 134 136 146 52 89 74 81 113 188 187 155 109 110 117 114 111 96 139 137 120 147 128 118 104 101 119 125 131 112 88 106 46 49 34 31 28 40 32 45 39 42 77 72 55 61 48 124 103 126 71 87 65 53 68 59 54 62 33 36 41 67 35 66 91 78 63 83 107 138 129 115 75 99 108 105 85 94 97 98 102 57 43 56 25 22 13 27 84 26 23 20 15 8 18 30 19 9 11 37 12 16 10 21 17 24 1 2 6 14 7 5 3 4 29 38 51 58 64 44 60 47 73 163 132 204 232 295 359 356 397 318 293 367 376 330 358 341 326 288 162 191 210 241 256 197 179 245 289 410 248 229 200 220 351 368 460 535 573 779 853 989 892 955 1088 962 1191 1122 1089 1097 920 963 956 1098 1147 1136 1135 1148 1238 1165 1258 1328 1235 1400 1351 1492 1695 1732 1882 1793 1747 1803 1760 1742 1685 1670 1639 1694 1821 1706 1889 1939 1994 2197 2499 2599 2807 2828 2262 2917 2547 2446 2527 2144 2482 2314 2335 2401 2445 2376 2306 2305 2143 2466 2538 2196 2324 2234 2065 2119 2021 2100 1993 1938 1800 2077 1728 1741 1828 1847 1908 1972 2013 1909 2038 1952 1960 1879 2000 1731 2598 2455 2498 2497 2022 1944 1902 1753 1792 1576 1481 1509 1616 1472 1520 1442 1199 1185 994 911 807 1022 947 1081 1121 1221 1217 1227 1273 1365 1491 1502 1479 1585 1490 1528 1399 1044 1034 1139 1345 1264 1035 993 1164 1289 1327 1163 1111 1066 730 558 530 777 954 798 766 636 472 385 419 409 440 437 383 384 320 374 395 634 627 594 749 646 703 729 796 674 660 626 571 718 613 444 382 361 431 402 508 610 463 439 593 702 824 775 822 838 837 850 713 738 659 658 737 683 632 522 570 698 604 609 682 673 735 803 834 802 835 773 848 784 774 836 764 714 562 605 579 625 747 701 851 1006 1302 1181 953 901 763 761 785 700 584 916 849 585 715 869 1017 1016 1018 1020 1042 765 728 685 717 716 611 612 471 307 261 262 299 312 242 298 308 297 257 280 392 396 447 479 557 686 787 595 825 719 890 891 933 870 919 960 704 637 740 741 826 1021 1161 1133 1007 1110 1050 1080 1838 1757 1866 1846 1746 1819 1920 1951 1900 1834 1983 2572 1999 1950 1984 1887 1928 2020 1986 2030 1888 1705 1628 1607 1880 1881 2283 2454 2630 2812 3226 3219 3301 3436 3510 3715 3608 3967 3764 4369 4392 4406 4355 4382 4416 4477 4422 4394 4282 4242 4187 4208 4120 4189 4039 3889 3928 3912 3896 3876 3788 3927 3870 3916 4099 4102 4009 4022 3850 3789 3794 2804 2819 2841 2098 2080 2059 2040 1949 1957 2019 2037 2851 2852 2858 2258 2272 2282 2259 2250 2859 2806 2526 2596 2061 2099 1801 1815 1978 1904 1905 1906 1942 1856 1979 2211 2261 2054 1958 1787 1704 1698 1663 1595 1699 1764 1723 1703 1717 1786 1750 1673 1734 1721 1726 1763 1702 1771 1773 1796 1969 1832 1855 1814 1806 2041 2195 2219 2232 2069 2012 2658 2135 2872 2863 2850 2857 2611 2556 2496 2294 2257 2194 2293 2803 2883 2818 3031 3066 3083 2958 1923 1770 1869 1967 1896 2134 2171 1997 1948 1892 1968 1915 1916 1914 1854 1772 1725 1785 1780 1805 1831 1579 1551 1575 1562 1568 1574 1578 1435 1540 1530 1467 1453 1450 1431 1452 1604 1587 1556 1620 1678 2079 2091 2035 2053 2152 2105 2116 2085 2210 1603 1493 1473 1619 1504 1480 1439 1456 1533 1512 1506 1510 1548 1553 1646 1554 1617 1676 1586 1521 1633 1591 1598 1592 1474 1463 1438 1511 1470 1425 1403 1298 1486 1558 1599 1683 1714 1894 1883 1947 1956 1912 1823 1922 1836 1852 1853 1733 1594 1601 1813 1795 1779 1666 1602 1671 1608 1503 1629 1681 1754 1618 1475 1402 1353 1482 1593 1559 1572 1443 1412 1497 1522 1538 1529 1547 1546 1634 1724 1761 1729 1701 1715 1835 1657 1652 1647 1640 1768 1719 1762 1720 1549 1635 1573 1653 1464 1321 1276 1329 1426 1352 1285 1413 1401 1376 1448 1560 1644 1600 1686 1707 1696 1660 1748 1708 1769 1749 1841 1976 1842 1996 1977 2097 2178 1890 1798 1824 1677 1730 1648 1555 1567 1513 1498 1449 1384 1466 1499 1476 1534 1457 1392 1404 1377 1393 1408 1577 1561 1539 1550 1440 1535 2117 2567 2093 2086 2092 2118 2231 2393 2394 2423 2444 1966 1895 2133 2153 2218 2036 2585 2595 2639 2964 3108 3162 3150 3049 3091 2776 2420 2345 2422 2421 2304 2437 2479 2290 2463 2344 2084 2125 2051 2083 2027 1891 1990 2071 2334 2478 2566 2536 2392 2230 2303 2132 2270 2209 1965 2050 1933 1941 1913 2170 2052 2386 2544 2517 2373 2493 2387 2327 2518 2464 2292 2179 2328 2271 2291 2411 2810 2594 2719 2686 2494 2469 3010 3143 3041 2443 2470 2545 2413 2374 2537 2890 2989 3265 3255 3341 3230 3152 3142 3121 3194 3282 3271 3273 3294 3272 3243 3218 2827 2882 3082 3177 3287 3318 3317 3378 3529 3576 3542 3603 3594 3550 3509 3444 3519 3575 3722 3593 3633 3607 3641 3689 3836 3833 3771 3779 3705 3829 3813 3595 3504 3329 3339 3281 3316 3340 3352 3259 3192 3338 3236 3040 2657 2512 2480 2442 2481 2322 2412 2638 2704 2677 2571 2678 2629 2840 3056 2965 2734 2802 2495 2679 2424 2414 2180 2094 1609 1667 1679 1709 1687 1588 1580 1569 1589 1654 1672 1661 1304 1091 1113 1123 1052 1099 1060 1008 957 995 1082 1171 1124 1149 921 842 879 878 809 938 1037 1115 1029 978 965 788 720 617 742 828 968 990 1000 969 1046 1045 871 949 648 810 811 912 935 812 873 453 789 649 638 574 510 474 489 565 560 536 618 844 800 551 829 843 808 799 859 872 1009 1468 1494 1202 1500 1563 1621 1036 1090 1069 1072 1068 1053 877 964 977 1114 1423 1422 1394 1277 1083 1192 1251 1292 1187 1208 1209 1166 1001 893 845 1074 1092 1167 1172 1084 1200 1203 1116 1201 979 1002 1073 1150 1117 1218 1204 1125 1141 1151 1101 1127 1210 1193 1205 1314 1245 1212 1244 1173 1126 1168 1054 664 567 538 553 545 529 652 665 830 888 881 619 620 815 958 894 970 996 1075 1102 1259 1211 1023 923 939 743 540 531 546 666 587 607 608 966 1174 1152 1118 1048 1049 1010 882 936 687 622 418 518 883 1056 1004 971 1142 940 897 863 981 928 1024 1011 914 801 1038 1293 1252 1219 1061 980 1137 1194 864 600 554 461 381 532 580 495 512 519 484 436 547 667 1246 1195 1397 1346 1355 1432 1454 1542 1623 1332 1274 1294 1228 1153 1224 1129 1213 992 1031 1071 791 982 941 959 1062 998 942 865 855 541 816 640 428 621 754 709 588 576 568 363 380 373 408 435 450 430 426 491 456 455 490 599 639 575 887 861 1070 1047 1299 1354 1100 927 906 922 913 860 814 651 769 676 707 598 628 483 516 498 662 880 677 663 566 780 854 706 790 768 442 446 452 438 552 537 515 781 1085 1030 1003 813 886 650 425 422 369 378 405 399 443 517 454 379 377 370 390 434 333 331 332 360 539 874 862 465 476 477 449 457 493 475 500 401 352 319 304 260 272 277 290 300 371 391 398 504 406 499 492 407 494 511 708 505 411 357 347 316 230 249 181 164 122 121 148 176 305 346 279 265 218 201 238 221 327 372 400 306 310 198 167 135 141 130 116 140 149 174 177 180 205 189 159 222 209 311 296 274 273 501 831 1076 1039 991 1119 1175 1239 1366 1361 1396 1331 1414 1444 1436 1469 1222 1223 1128 1055 997 1278 1322 1267 1419 1622 1645 1630 1610 1641 1655 1668 1716 1662 1656 1631 1581 1477 1541 1459 1428 1305 1409 1306 1286 1330 1395 1385 1418 1410 1429 1642 1688 1697 1735 1722 1727 1751 2260 2095 2181 2154 2375 2323 2081 2060 1874 1843 1816 1884 1935 1825 1799 1774 1710 1689 1817 1755 1590 1565 1524 1501 1611 1487 1460 1505 1557 1536 1582 1564 1680 1857 1897 1858 1934 1917 2002 2028 2072 3397 3693 2725 2811 2805 4157 4154 4393 4410 4459 4490 4503 4555 4606 4604 4622 4618 4617 4611 4662 4663 4646 4627 4610 4584 4571 4574 4554 4526 4537 4541 4487 4404 4354 4324 4221 4461 4543 4590 4596 4558 4588 4630 4638 4654 4659 4655 4653 4657 4661 4648 4649 4608 4609 4372 4283 3939 3701 3650 3700 3917 3505 3346 2842 2548 2557 2726 1973 2014 2032 2029 2004 2031 2089 2055 2075 2074 2045 2198 2120 1840 1940 1910 1930 1921 1812 2015 1961 2612 2860 2844 2377 2378 2558 2761 2752 2716 2500 2549 2604 2694 3130 3151 3003 2727 2613 2586 2600 2601 2631 2011 2047 2016 2005 2136 2155 2792 2831 3178 3302 3309 3195 3122 2832 2520 2622 2746 2793 2874 3227 3170 3213 3295 3377 3604 3728 3667 3615 3163 3399 3472 3780 3897 4137 4174 3948 3455 3098 3109 3144 2969 2772 2853 2794 2660 2641 2728 2747 2753 2530 2573 2559 2688 2950 3004 2977 2788 2680 2749 2813 2951 3023 2918 3099 3131 3196 3260 3949 4128 4161 4171 4277 4363 4268 4334 4305 4411 4390 4341 4374 4377 4364 4246 4263 4226 3890 3551 3366 3379 3245 3231 2990 3033 2898 2899 3075 2833 2670 2643 2252 2263 2471 2200 2364 2448 2778 2705 2808 2754 2439 2251 2447 2540 2146 2157 2336 2199 2426 2484 2668 2614 2681 2662 2661 2669 2696 2110 2337 2750 2697 2706 2273 2347 2236 2109 2175 2237 2427 2531 2238 2348 2514 2457 2201 2158 2349 2456 2356 2379 2440 2624 2644 2663 2762 2698 2707 2834 2845 2789 2779 2891 3153 3261 3180 3256 3246 3154 3068 3024 2900 2729 2607 2625 2774 2991 3061 3214 3237 3203 3311 3250 3284 3425 3456 3415 3511 3406 3468 3418 3331 3207 3322 3347 3401 3369 3558 3577 3687 3668 3669 3626 3673 3598 3457 3463 3426 3323 3220 3188 3116 3353 3492 3543 3439 3381 3458 3480 3380 3388 3402 3559 3688 3676 3734 3832 3831 3934 3844 3976 3898 3817 3874 3802 3803 3786 3772 3708 3658 3747 3852 3865 3871 3795 3918 3838 3837 3784 3785 3801 3777 3662 3691 3636 3586 3612 3482 3481 3474 3343 3253 3133 3189 3118 2997 3015 2930 2648 2541 2487 2403 2162 2224 2361 2428 2396 2633 2515 2339 2367 2922 3134 2992 2931 2940 2764 2820 2569 2665 2525 2524 2366 2723 2763 2886 2855 2948 3100 2979 2985 3199 3164 3304 3296 3071 2885 2978 2903 2809 2618 2683 2775 3052 3267 3303 3172 3111 3222 3247 3319 3392 3370 3393 3449 3445 3412 3101 2691 2765 2684 2553 2932 3072 3239 3297 3344 3325 3313 3459 3512 3441 3394 3305 3248 2986 2797 2759 2709 2381 2176 2254 2340 2243 2429 2516 2739 2473 2241 2242 2204 2266 2552 2225 2554 2798 2993 3139 3200 3135 3043 2933 2867 2674 2941 3119 3103 3128 3058 3102 3209 3085 3182 3288 3276 3254 3257 3421 3252 3183 3360 3407 3345 3413 3403 3464 3625 3539 3540 3488 3432 3367 3442 3443 3320 3269 3228 3334 3350 3306 3175 3062 2974 2998 3093 3035 3087 2942 3036 2987 3184 3291 3270 3249 3362 3433 3383 3465 3502 3489 3567 3631 3692 3618 3655 3906 3827 3738 3640 3599 3683 3590 3521 3571 3584 3447 3422 3390 3223 3210 3140 3157 3293 3201 3158 3326 3375 3112 3160 3027 2935 2880 2732 3037 3016 2981 3126 3354 3400 3332 3396 3409 3364 3321 3161 3147 3211 3277 3258 3241 3308 3374 3233 3292 3307 3477 3501 3363 3446 3335 3405 3453 3452 3524 3600 3628 3768 3750 3990 3960 4027 3909 3979 4049 4184 4204 4139 4116 4069 3970 4016 3986 3998 3869 3875 3842 3868 3769 3841 3887 3942 3910 4014 4041 4063 4090 4059 3893 3840 3858 3895 3941 4015 3980 3901 3854 3739 3719 3828 3819 3760 3703 3536 3535 3503 3516 3485 3656 3713 3601 3649 3665 3561 3632 3486 3517 3579 3554 3792 3755 3773 3806 3846 3888 3847 3873 3778 3878 3920 3798 3894 3969 4028 4091 4043 4145 4181 4275 4166 4147 4124 4125 4142 4164 4138 4162 4188 4211 4197 4214 4098 4212 4123 4101 4160 4141 4143 4158 4109 4133 4126 4097 4140 4153 4129 4146 4169 4106 4074 4058 3984 4011 3997 4012 3975 4104 4057 4075 4103 4176 4110 4080 4096 4092 4100 4079 4082 4067 4030 4073 3973 4076 4071 4033 4003 4081 4044 4010 4055 4060 4095 4108 4064 4088 4087 4250 4245 4207 4168 4151 4121 3919 3866 3853 3862 3900 3930 3957 3959 3899 3835 3770 3805 3886 3974 3991 3996 4024 4013 4159 4190 4376 4379 4359 4361 4280 4264 4115 4131 4020 4026 4047 4019 4005 3892 3815 3791 3797 3877 4025 4045 4051 4029 4040 3861 3790 3891 3818 3808 3824 3718 3682 3702 3648 3680 3545 3522 3569 3431 3476 3500 3450 3298 3349 3371 3428 3642 3566 3563 3460 3606 3681 3767 3753 3872 4068 4056 3972 4018 3958 4002 3968 4062 4072 4023 4004 3882 3905 4036 3985 3804 4048 4136 4199 4191 4237 4206 4192 4198 4284 4286 4289 4295 4347 4346 4457 4460 4519 4510 4493 4542 4556 4545 4593 4589 4602 4603 4647 4650 4658 4651 4645 4637 4644 4643 4642 4639 4629 4625 4636 4615 4616 4632 4624 4641 4619 4614 4633 4600 4594 4592 4582 4562 4566 4586 4583 4585 4581 4587 4575 4569 4564 4560 4577 4539 4528 4546 4557 4550 4548 4576 4565 4573 4553 4544 4538 4535 4523 4512 4509 4491 4501 4486 4482 4470 4463 4436 4448 4443 4432 4446 4455 4450 4449 4465 4476 4479 4481 4485 4484 4500 4521 4511 4516 4530 4520 4495 4489 4496 4474 4475 4468 4456 4488 4492 4513 4517 4502 4505 4524 4527 4534 4525 4579 4570 4567 4568 4580 4578 4607 4605 4572 4533 4598 4599 4595 4597 4613 4631 4635 4621 4612 4620 4623 4634 4660 4656 4652 4640 4628 4601 4626 4563 4551 4536 4507 4591 4531 4454 4433 4430 4508 4388 4366 4328 4278 4152 3885 3629 3496 3438 3752 4037 4196 4258 4203 4340 4234 4260 4183 4244 4135 4144 4148 4134 4122 3913 4052 3940 3992 3851 3674 3741 3670 3781 3706 3758 3742 3675 3497 3251 3333 3198 3274 3232 3197 3205 3206 3204 3145 2875 2893 2892 2780 2645 2616 2738 2920 2919 2689 2699 2450 2286 2128 2351 2160 2147 2575 2574 2708 2795 3012 3187 3310 3174 3186 2971 3011 2959 2878 2615 2380 2485 2315 2274 2220 2159 2265 2264 2365 2239 2357 2402 2350 2449 2550 2560 2671 2773 2846 2720 2984 3123 3050 2926 3080 3181 3115 3005 2755 2781 2358 2522 2647 2814 2646 2756 2757 2672 2507 2390 2506 2395 2148 2186 2222 2275 2338 2359 2185 2184 2316 2183 2203 2202 2354 2287 2240 2253 2101 2102 2503 2505 2504 2532 2590 2608 2523 2215 2214 2486 2562 2551 2736 2673 2722 2690 2847 2682 2137 2223 2308 2360 2161 2459 2451 2609 2758 2929 2928 3084 3070 3238 3155 3132 3025 3092 3156 3215 3051 3006 2902 2790 2854 2901 2861 2796 2921 2909 2927 2972 2939 3124 2960 2961 3042 3034 2835 2664 2561 2589 2221 2212 2213 2353 2458 2352 2472 2735 2721 2626 2617 2700 2907 2944 2908 3069 3105 3057 3117 3312 3416 3285 3221 3324 3359 3430 3382 3440 3417 3588 3531 3530 3623 3657 3765 3834 3814 3823 3826 3678 3653 3520 3469 3565 3583 3427 3514 3499 3498 3495 3562 3651 3448 3348 3266 3263 3262 3585 3473 3616 3822 3830 4193 4269 4370 4378 4391 4426 4428 4434 4438 4440 4444 4547 4540 4497 4506 4458 4466 4451 4402 4409 4399 4397 4401 4398 4405 4400 4386 4362 4360 4351 4330 4311 4276 4332 4290 4261 4313 4342 4338 4270 4259 4298 4318 4335 4315 4343 4322 4329 4373 4371 4367 4352 4314 4309 4272 4312 4308 4271 4265 4219 4200 4220 4230 4247 4300 4303 4331 4325 4348 4349 4356 4414 4420 4518 4515 4499 4483 4494 4498 4552 4549 4559 4522 4478 4561 4529 4504 4471 4435 4431 4412 4415 4421 4396 4306 4053 3951 3921 3903 3726 3573 3538 3621 3757 3710 3729 3733 4001 4000 3987 3843 3799 3811 3881 3825 3487 3467 3424 3434 3479 3518 3527 3746 3867 4321 4337 4375 4353 4316 4281 4248 4297 4257 4279 4299 4253 4273 4350 4319 4326 4336 4345 4333 4320 4266 4224 4231 4209 4240 4256 4310 4287 4317 4296 4304 4339 4344 4327 4177 4293 4380 4439 4423 4452 4462 4514 4467 4532 4424 4427 4464 4469 4437 4425 4480 4473 4472 4447 4441 4453 4429 4407 4445 4442 4419 4417 4389 4387 4383 4385 4403 4413 4408 4418 4395 4358 4365 4301 4292 4241 4381 4384 4368 4267 4243 4274 4165 4127 3989 3994 4093 3977 3978 3953 4032 4111 4155 4083 4070 4054 3964 3944 4038 4021 3556 3568 3557 3548 3971 3922 3883 3995 3954 4113 4182 4105 4089 4112 4094 4114 4149 4225 4323 4357 4251 4132 4119 3926 3943 3925 3988 3915 3904 3936 3993 3952 3714 3932 3937 3963 3962 3435 3574 3911 3907 3955 3946 4084 4167 4194 4213 4202 4173 4180 4201 4232 4254 4291 4195 4186 4179 4215 4216 4163 4077 4107 4156 3956 3947 4150 4130 4117 4210 4217 4172 4178 4236 3981 4031 4085 4017 4046 4042 4175 4118 4066 4008 4061 3982 3945 3965 3672 3638 3812 3924 3983 3966 3884 3864 3775 3776 3774 3793 3763 3491 3528 3821 3727 3749 3602 3541 3490 3411 3549 3494 3315 3368 3328 3242 3149 3114 3039 2963 3090 3009 2957 3022 3060 3014 2968 2962 2967 2996 3113 3055 2905 2881 2937 2871 2801 2771 2745 2584 2713 2915 2955 2877 2889 2826 2862 2760 2737 2839 2888 2800 2208 2637 2410 2477 2628 2714 2620 3001 2982 2983 2896 2988 2924 3002 2715 2676 2343 2975 2956 3021 2947 3127 2724 2492 2476 2593 2534 2535 2385 2269 2115 2321 2039 2078 2302 2229 2193 2289 2441 2419 2436 2372 2655 2384 2511 2582 2703 2914 2870 2946 3089 2768 2268 2267 2227 2216 2654 3020 3096 3141 3385 3423 3454 3478 3508 3614 3356 3384 3537 3645 3849 3938 3787 3732 3709 3507 3391 3471 3365 3351 3300 3148 3064 3019 2462 2355 2329 2247 2226 2123 2206 2189 2112 2150 2299 2246 2510 2675 2783 2149 2205 2277 2489 2399 2163 2276 2490 2408 2382 2579 2383 2954 2923 2821 2711 2869 2578 2799 2953 3176 3104 3120 2822 2838 3000 2966 3081 3029 3095 3063 3136 3217 2887 2823 3079 3094 2936 2849 2766 2418 2580 3018 3047 3280 3336 3355 3193 3168 3129 3008 2895 2653 2453 2391 2318 2581 2767 2824 2912 3013 2785 2784 3054 3235 3097 2995 3088 2742 2825 2190 2131 2165 2288 2278 2255 2310 2191 2331 2256 2248 2301 2300 2166 2168 2319 2543 2332 2363 2067 1963 1867 1822 1850 1849 1804 1851 1946 2007 1989 1903 1932 2048 1931 2026 1868 1830 1829 2124 2167 2217 2280 2279 2151 2096 2192 2249 2141 2228 2400 2435 2371 2342 2330 2326 2114 2025 2034 2057 2076 2058 2049 2068 1911 1964 2320 2312 2311 2169 2207 2281 2333 2583 2491 2409 2570 2656 2743 2603 2769 2712 2627 2744 2733 2770 3357 3376 3065 3048 3030 3337 3327 3410 3169 3038 3074 2913 2786 2555 2475 2667 2636 2417 2894 2140 2113 2130 2164 2298 2317 2177 2461 2651 2652 2592 3028 3046 3137 3314 3225 3185 2911 2999 3017 3299 3686 3572 3620 3666 3721 3720 4205 4239 4262 4302 4185 4255 4285 4235 4252 4238 4249 4307 4288 4233 4223 4229 4228 4227 4007 3999 3961 3931 3914 4222 4170 4065 3935 3859 3745 3546 3547 3466 3555 3526 3525 3704 3761 3644 3671 3619 3580 3398 3564 3581 3582 3724 3855 3863 3880 3879 3856 3810 3820 3807 3725 3762 3685 3684 3698 3740 3731 3730 3751 3857 3848 3756 3816 3264 3286 3190 3166 3167 3191 3278 3212 3224 3234 3279 3159 3107 3078 2994 2943 2782 2868 2949 2952 2666 2533 2488 2297 2509 2434 2398 2370 2577 2565 2433 2468 2508 2467 2104 2139 2309 2407 2416 2474 2460 2432 2406 2129 2188 2245 2296 2111 2452 2837 2904 2817 2879 3077 3146 3173 3125 2934 3073 3076 3086 3044 3026 3165 3229 3408 3404 3664 3373 3361 3389 3268 2836 3053 3106 2980 3059 3045 2973 2856 2591 2576 2848 2740 2791 2563 2542 2650 2341 2564 2710 2602 2702 2741 2368 2431 2430 2103 2122 2397 2369 2295 2187 2415 2619 2685 2610 2635 2244 2649 2816 2405 2404 2138 2362 2693 2731 2751 2634 2701 3007 2730 2692 2876 2945 2910 2815 3208 3290 3275 3395 3372 3289 3216 3240 3451 3420 3506 3493 3484 3515 3523 3613 3587 3663 3744 3643 3723 3783 3860 3845 3839 3902 3929 4050 4034 4035 3950 4006 3933 3754 3570 3534 3560 3630 3697 3743 3737 3796 3736 3596 3592 3634 3696 3624 3647 3589 3578 3533 3654 3695 3544 3553 3637 3475 3483 3419 3437 3470 3532 3660 3735 3679 3690 3639 3622 3716 3766 3717 3652 3707 3759 3809 3712 3617 3699 3627 3677 3711 3800 3748 3782 3611 3635 3605 3610 3661 3659 3552 3597 3591 3609 3462 3461 3387 3358 3429 3283 3342 3386 3202 3067 3110 3138 2976 2970 2925 2884 2938 3171 3179 3032 2897 2777 2748 2623 2438 2521 2642 2529 2513 2145 2173 2235 2156 2695 2307 2325 2389 2285 2174 2126 2127 2121 2501 2659 2866 2906 2787 2502 2606 2632 2568 2687 2718 2588 2587 2605 2717 2056 1995 1954 1953 1955 1975 2172 2082 2033 2001 2066 2006 2018 2023 2024 2017 2010 2284 1974 1794 1848 1962 2090 1945 1988 2046 2865 2873 2864 2346 2388 2483 2528 2539 2830 2843 2829 3330 4294 4218 4078 3513 3646 3694 4086 3923 3908 3244 2597 2621 2425 3414 2916 1992 1837 1980 1991 1885 1789 1756 1737 1693 1810 1797 1809 1845 1864 1918 1959 1919 1876 1925 1981 2009 2142 2073 2106 2062 1886 2070 2042 2107 1970 1943 1899 1865 1927 1998 2063 2640 2546 2465 1684 1675 1691 1682 1982 1744 1745 1765 1383 1146 1182 1407 1465 1271 1284 1249 1256 1282 1158 1180 1232 1374 1382 1255 1169 1033 1032 1107 1131 1086 1226 1325 1360 1241 1283 1313 1288 1248 1263 1231 1312 1287 1280 1188 1105 1012 1177 1130 1104 1040 1064 710 792 983 1025 1063 1229 1307 1369 1356 1333 1336 1415 1386 1434 1398 1387 1309 1339 1349 1337 1358 
