mu1979.tsp
cities: 1979
runs: 100
avg cost: 175229
avg steps: 2640.22
best: 147963

Best route:
1706 1695 1691 1700 1709 1690 1680 1632 1647 1622 1618 1625 1626 1646 1666 1697 1679 1652 1634 1586 1599 1616 1609 1612 1613 1614 1617 1543 1529 1518 1525 1517 1519 1509 1360 1346 1351 1282 1277 1278 1315 1326 1328 1363 1364 1436 1545 1544 1546 1530 1539 1495 1496 1508 1498 1521 1533 1523 1522 1526 1556 1566 1562 1563 1568 1555 1501 1494 1502 1499 1550 1565 1561 1596 1589 1603 1619 1638 1639 1667 1671 1689 1687 1684 1693 1696 1712 1725 1726 1730 1739 1741 1742 1748 1746 1744 1749 1751 1758 1759 1764 1756 1757 1780 1771 1797 1803 1808 1814 1817 1830 1837 1841 1826 1825 1823 1821 1816 1838 1883 1844 1857 1879 1885 1890 1922 1928 1946 1950 1957 1941 1948 1924 1953 1931 1926 1925 1954 1959 1952 1933 1938 1913 1893 1898 1915 1912 1902 1903 1927 1907 1921 1894 1892 1900 1904 1901 1923 1919 1906 1856 1829 1813 1819 1834 1877 1873 1878 1847 1868 1897 1889 1876 1861 1845 1836 1851 1850 1874 1872 1854 1846 1887 1881 1880 1884 1896 1895 1905 1899 1891 1888 1886 1867 1855 1853 1866 1870 1848 1843 1865 1871 1864 1849 1882 1917 1929 1940 1945 1932 1910 1909 1914 1911 1918 1936 1858 1852 1839 1832 1831 1827 1833 1818 1820 1840 1869 1860 1942 1949 1937 1955 1943 1916 1920 1951 1958 1966 1978 1979 1976 1971 1972 1977 1975 1974 1969 1973 1970 1962 1961 1968 1964 1965 1956 1944 1930 1967 1963 1939 1947 1960 1934 1935 1908 1862 1859 1875 1863 1842 1828 1822 1810 1811 1800 1801 1807 1809 1799 1788 1798 1796 1790 1792 1794 1795 1793 1805 1812 1835 1824 1815 1804 1781 1778 1785 1773 1763 1765 1750 1752 1754 1755 1760 1753 1762 1761 1766 1769 1789 1784 1806 1802 1787 1779 1783 1786 1774 1775 1776 1770 1768 1791 1782 1772 1777 1767 1743 1745 1747 1737 1736 1740 1723 1715 1692 1688 1710 1708 1699 1707 1720 1733 1731 1734 1735 1727 1738 1719 1698 1694 1678 1674 1670 1660 1637 1645 1651 1643 1636 1611 1572 1573 1595 1594 1615 1597 1590 1604 1576 1578 1567 1577 1641 1640 1549 1528 1535 1491 1438 1424 1485 1465 1486 1452 1417 1414 1387 1323 1319 1306 1262 1162 1226 1302 1235 1293 1296 1344 1343 1334 1345 1312 1320 1350 1366 1362 1391 1489 1527 1524 1531 1520 1536 1538 1541 1532 1458 1376 1399 1413 1356 1348 1317 1304 1279 1307 1311 1370 1497 1503 1487 1510 1507 1484 1388 1329 1393 1368 1400 1418 1410 1405 1435 1428 1448 1457 1453 1443 1449 1445 1450 1423 1440 1464 1462 1455 1447 1419 1421 1404 1403 1398 1394 1381 1383 1357 1382 1402 1397 1396 1338 1224 1257 1249 1172 1134 1127 1196 1242 1207 1167 1250 1201 1241 1149 1099 1181 1173 1133 1144 1158 1175 1058 1118 1200 1335 1337 1339 1340 1352 1354 1342 1372 1367 1385 1384 1361 1359 1386 1389 1358 1347 1380 1349 1341 1355 1327 1333 1325 1316 1330 1336 1322 1309 1268 1318 1285 1251 1300 1210 1259 1239 1156 1114 1083 1071 1028 1096 1116 1131 1074 1030 1043 1010 1024 1018 990 867 883 876 851 977 966 936 968 979 988 984 989 963 900 879 774 788 772 785 950 934 938 930 846 693 757 704 782 737 749 770 714 698 686 687 712 658 642 622 594 532 610 627 579 574 598 567 606 625 590 674 589 582 539 483 476 475 486 491 496 426 421 422 433 440 430 441 500 557 596 709 722 730 792 760 723 703 717 699 721 697 575 570 661 672 612 526 514 510 506 472 489 501 508 516 682 669 650 615 872 901 838 853 719 566 544 518 497 488 468 451 448 431 470 463 428 394 354 382 399 348 356 350 311 300 308 322 329 310 309 317 334 337 364 379 366 341 345 377 396 400 414 418 417 395 352 344 369 378 388 403 402 423 427 435 392 432 404 361 383 325 326 313 343 332 386 333 328 370 362 439 449 436 492 571 533 576 892 884 777 754 909 926 915 918 823 796 786 638 831 818 794 805 836 824 888 854 914 895 886 882 784 768 667 645 660 675 696 649 668 653 599 584 600 635 597 580 637 715 646 797 815 700 691 662 608 601 605 586 692 706 710 683 718 688 732 739 940 893 827 898 894 874 848 958 916 913 1009 1002 1019 1065 1187 1098 1021 1007 1004 1025 947 1011 1128 1106 1031 1061 1208 1223 1217 1218 1236 1205 1220 1170 1176 1213 1244 1229 1265 1281 1274 1271 1301 1298 1295 1275 1291 1276 1269 1292 1284 1283 1289 1297 1286 1260 1288 1198 1211 1202 1192 1014 880 928 833 864 908 905 925 910 992 997 1108 1052 1161 1219 1248 1243 1267 1256 1264 1266 1272 1209 1273 1214 1199 1137 1148 1140 1147 1150 1129 1141 1110 998 960 949 875 887 1005 912 1159 1177 1138 1103 1093 1062 1080 1076 1078 1178 1225 1255 1168 1180 1184 1183 1179 1136 1195 1001 946 959 951 962 953 964 995 991 1013 971 981 967 969 973 986 987 978 974 972 1003 955 1022 1017 1027 945 941 939 999 1032 1046 1085 1056 1189 1115 1117 1120 1100 1109 1121 1037 1035 1064 1153 1146 1047 1016 1020 840 825 822 865 810 799 811 800 842 922 759 735 742 763 744 738 676 663 614 591 632 726 552 551 577 633 626 621 609 628 640 530 522 521 466 453 444 442 490 520 493 473 443 487 452 512 528 527 535 503 548 623 639 549 568 585 651 684 618 654 903 944 1263 1294 1234 1197 1194 1190 1191 942 931 923 906 830 789 747 746 812 869 881 857 862 843 993 1081 1015 1000 1069 1089 1130 1122 1107 1123 1113 1233 1254 1245 1227 1215 1221 1240 1321 1310 1314 1313 1238 1231 1228 1222 1203 1252 1155 1102 1097 1154 1163 1126 1038 1045 1204 1185 1164 1139 1105 1044 1036 1041 1029 1026 932 935 775 616 630 778 877 870 871 861 948 985 1006 996 954 1033 1059 1039 1060 927 933 980 937 844 841 834 767 764 758 896 943 924 1008 1101 1142 1160 1151 1152 1095 1143 1132 1174 1145 1157 1119 1111 1075 1082 1092 1050 1054 1067 1077 1084 1042 1051 956 957 961 965 970 829 828 771 740 750 724 728 762 807 755 725 814 868 850 798 839 885 994 761 821 773 779 751 619 636 711 565 536 529 550 659 716 708 701 745 802 793 741 641 624 648 680 673 678 670 729 748 790 803 832 817 826 808 690 665 572 573 677 713 837 866 859 863 907 890 904 860 897 919 855 787 809 780 743 607 689 736 766 656 655 765 819 813 783 917 889 911 899 791 806 781 858 873 920 847 753 720 664 685 613 695 734 727 795 845 804 756 603 634 707 733 731 776 835 902 878 1012 1063 1053 1057 1034 1066 1040 1070 1135 1055 1182 1287 1401 1377 1365 1374 1324 1373 1332 1353 1369 1406 1412 1433 1470 1493 1488 1537 1548 1534 1505 1480 1459 1416 1468 1483 1511 1540 1500 1490 1492 1469 1475 1434 1444 1461 1446 1454 1460 1472 1504 1478 1432 1299 1331 1390 1379 1378 1371 1392 1303 1188 1125 1079 1090 1104 1087 975 952 982 891 929 424 437 429 415 342 288 273 265 264 263 261 245 222 217 214 212 205 190 186 197 189 183 185 178 194 188 208 193 192 184 187 180 174 172 173 16 6 4 2 1 3 5 17 7 13 22 24 86 119 56 40 10 12 8 9 26 18 31 64 77 117 124 110 99 98 134 131 85 68 66 63 83 89 103 101 102 125 91 48 96 123 167 160 166 168 163 162 176 177 181 33 65 87 165 171 154 129 148 158 147 112 111 157 126 133 120 121 74 62 51 45 49 105 79 127 137 161 170 145 139 118 144 152 146 130 116 21 15 29 32 72 58 95 169 149 88 104 106 135 159 142 81 27 90 19 14 37 46 141 155 132 143 114 136 156 122 150 140 138 115 153 100 97 80 76 25 39 70 75 113 43 71 61 92 52 94 41 84 57 53 107 69 60 23 20 36 42 30 47 44 38 11 35 108 59 78 93 67 109 128 151 50 34 82 55 73 164 182 54 28 179 175 191 196 199 201 207 211 206 203 210 204 198 195 200 202 209 213 215 216 227 224 221 241 260 255 256 248 219 218 220 223 237 270 271 276 275 274 267 266 257 226 228 225 232 229 231 233 235 242 251 239 240 238 234 230 236 247 244 243 246 249 252 254 259 250 253 258 262 268 269 272 291 296 295 293 289 279 285 277 281 284 283 282 286 292 290 294 306 299 301 304 307 327 330 351 339 336 365 373 359 372 380 381 353 357 368 376 390 401 363 347 419 410 409 407 425 391 355 331 316 323 321 305 303 297 298 287 278 280 302 315 319 346 434 450 471 465 481 479 462 464 460 477 485 478 484 480 498 517 525 502 569 652 611 592 581 604 593 629 564 559 499 469 438 461 458 459 413 408 360 371 385 374 367 358 338 335 318 320 314 324 340 349 375 387 384 405 406 412 398 393 389 482 602 617 583 507 509 542 555 595 631 554 541 558 553 540 547 546 561 543 534 556 545 587 515 578 560 538 505 495 457 494 523 563 504 513 467 474 446 455 456 447 524 537 531 445 454 312 416 397 411 420 511 519 562 588 657 671 694 705 702 681 679 620 647 666 643 644 752 769 852 801 849 921 820 816 856 976 983 1023 1048 1049 1112 1086 1073 1091 1088 1068 1072 1094 1124 1171 1166 1165 1206 1237 1261 1270 1280 1305 1308 1186 1193 1230 1258 1253 1216 1247 1232 1212 1169 1246 1290 1415 1375 1411 1395 1409 1426 1425 1422 1429 1408 1439 1420 1431 1437 1427 1407 1451 1442 1441 1456 1467 1463 1477 1474 1476 1473 1482 1481 1466 1471 1479 1430 1506 1513 1512 1515 1516 1514 1542 1551 1560 1558 1571 1580 1581 1583 1585 1564 1569 1559 1553 1554 1552 1547 1575 1582 1574 1579 1557 1592 1593 1570 1588 1584 1591 1587 1608 1600 1598 1605 1602 1601 1606 1610 1607 1620 1633 1648 1635 1649 1644 1623 1624 1627 1621 1631 1629 1630 1642 1661 1654 1664 1672 1675 1673 1677 1668 1628 1653 1656 1665 1662 1659 1650 1663 1655 1657 1658 1669 1676 1683 1702 1704 1705 1703 1686 1681 1685 1682 1701 1722 1716 1717 1721 1729 1732 1728 1724 1714 1718 1711 1713 
