uy734.tsp
cities: 734
runs: 734
avg cost: 440143
avg steps: 734.162
best: 379271

Best route:
732 733 702 672 251 230 175 114 78 83 53 76 110 115 93 74 104 161 157 112 119 137 140 143 92 60 31 70 160 200 394 468 461 397 396 450 476 460 449 443 401 381 411 390 489 578 560 510 377 333 275 210 204 350 367 303 315 307 431 477 568 667 593 495 467 464 466 548 535 537 575 611 579 55 38 29 134 380 383 496 647 682 674 484 430 304 255 217 130 155 351 434 615 619 534 243 235 233 410 686 711 657 491 441 445 532 524 471 456 528 596 656 624 556 459 419 248 242 239 300 328 339 418 422 352 262 269 408 371 433 417 444 399 425 487 582 638 655 581 577 498 490 470 462 454 266 126 95 21 2 14 139 135 128 141 145 94 106 259 238 344 334 342 436 602 591 614 504 494 374 387 629 698 700 699 725 722 675 482 440 415 362 366 201 87 149 355 563 529 538 507 552 625 598 587 488 492 292 317 353 375 348 337 296 62 64 82 99 688 701 728 719 704 709 432 276 218 177 188 185 136 174 523 558 576 613 630 601 665 664 685 678 714 716 690 677 689 694 734 692 679 668 641 338 314 182 181 213 209 289 281 72 24 10 5 7 26 125 231 368 512 515 519 501 518 517 564 626 639 223 153 159 176 113 65 49 52 30 32 48 57 61 97 329 370 475 658 713 703 555 435 386 186 156 147 75 36 27 67 63 54 121 124 252 207 199 183 219 225 347 437 561 570 610 588 497 363 273 287 283 286 290 505 653 684 660 645 542 526 455 472 543 539 551 414 429 391 404 409 406 405 345 336 395 509 527 483 379 325 51 43 100 105 109 118 240 257 270 227 244 284 301 332 416 605 628 710 720 691 715 708 718 637 580 618 585 500 103 122 164 193 627 644 654 583 316 298 226 194 288 427 516 549 565 356 178 163 131 117 111 88 66 68 45 46 80 85 133 215 589 612 590 485 493 584 617 621 643 669 648 635 636 520 522 322 313 166 138 173 216 282 250 254 373 369 400 378 132 19 25 11 16 18 22 123 261 331 453 480 465 479 424 446 503 562 586 607 571 340 234 208 165 180 191 220 189 241 203 107 108 79 84 81 229 326 357 412 514 557 631 696 705 721 695 600 295 237 169 187 196 447 448 511 525 474 553 540 531 634 652 723 712 693 724 661 683 676 649 662 680 670 499 508 536 572 632 633 623 559 473 402 312 294 179 168 167 150 154 146 152 129 198 359 341 305 253 190 34 13 12 8 4 9 20 37 42 40 23 15 17 6 3 1 170 256 212 184 192 247 246 263 224 311 299 457 574 573 592 541 73 50 44 39 69 98 205 272 280 268 267 274 277 335 330 346 360 321 264 291 324 530 650 671 659 663 697 603 569 469 428 420 376 265 245 127 91 86 47 77 58 56 71 89 90 120 195 171 41 28 162 271 421 463 481 426 384 372 365 392 458 486 478 438 451 439 442 413 258 206 197 222 249 327 398 407 385 361 358 403 452 597 673 706 707 727 717 666 651 646 606 599 567 622 544 513 364 279 278 293 309 349 354 323 310 260 232 211 202 148 144 214 228 221 172 158 116 142 151 236 306 343 642 687 729 726 731 730 681 423 59 35 33 96 101 102 308 320 382 393 388 319 318 302 297 285 389 502 550 616 604 533 506 521 554 547 566 595 546 545 608 594 620 609 640 
