mu1979.tsp
cities: 1979
runs: 100
avg cost: 1.17269e+06
avg steps: 2919.51
best: 999826

Best route:
177 812 1102 1293 1296 1371 1379 1374 1332 1353 1428 1423 1471 1466 1421 1404 1375 1358 1342 984 986 987 280 278 290 283 286 287 297 348 443 473 698 936 981 1200 1381 1453 1449 1477 1464 1467 1515 1493 1505 1594 1595 1618 1674 1707 1716 1709 1700 1570 1400 488 463 547 608 649 611 593 358 346 360 643 775 776 634 707 1006 985 1185 1376 1557 1658 1661 1695 1673 1217 864 629 355 349 340 372 353 368 387 367 686 704 941 950 930 752 630 618 695 778 798 999 978 1056 1522 1562 1599 1611 1459 1165 1094 1124 1182 1369 1324 1302 1303 1029 948 996 587 646 479 477 558 549 891 906 1533 1628 1656 1668 1676 1677 1650 1279 1075 907 863 943 976 1033 1139 1510 1497 1257 1158 782 770 759 1447 1857 1948 1952 1968 1973 1974 1297 1283 1298 1271 1327 1206 1188 1087 923 881 789 738 669 625 606 594 523 494 577 619 636 670 472 399 366 344 341 337 329 265 68 83 166 1000 1162 1287 1304 1258 1132 1145 1564 1606 1607 1544 1545 1753 1821 1847 1787 1635 1320 877 503 511 528 585 613 1038 1235 1488 1706 1832 1840 1839 1872 1864 1867 1816 1770 1443 1290 685 689 562 666 800 1035 1361 1403 1426 1354 784 459 465 471 499 1108 1161 1187 1208 892 914 886 653 540 546 441 421 423 422 1115 1527 1542 1560 1551 1552 1514 1393 1368 1391 1548 1685 1721 1730 1726 1705 1631 1605 1378 1390 1313 1315 1282 1278 1113 1089 1197 931 932 1086 1067 1092 1054 924 954 889 917 983 873 858 911 1186 1796 1888 1892 1904 1873 1866 1359 901 378 369 402 434 438 462 469 475 451 448 524 624 626 817 839 1116 1141 1110 1177 1225 1210 1096 1003 1024 1080 1083 1076 1103 1309 1383 1862 1835 1812 1627 1602 1385 1386 946 973 964 969 826 814 808 724 693 737 785 1018 1429 1445 1448 1370 1413 1362 1317 1305 1167 1149 1207 1181 811 470 428 440 432 435 491 476 394 382 377 345 364 467 890 1088 1885 1960 1956 1300 683 691 583 604 498 484 408 409 319 318 386 714 1142 1169 1112 1044 1091 916 768 696 436 75 59 71 84 162 167 183 185 197 1203 1263 1580 1581 1574 1506 1174 334 240 239 250 258 1307 1680 1762 1768 1772 1782 1795 1896 1907 1954 1959 910 905 384 323 331 324 315 449 439 514 518 516 538 456 457 474 531 537 659 870 1226 1245 1233 288 214 205 222 227 622 658 772 938 1153 1249 1405 1388 1196 874 913 1005 990 1146 1334 1424 1414 1584 1593 1608 1672 1675 1683 1690 1718 1798 1814 1834 1890 1951 1942 1911 1908 1901 1900 1727 1671 1604 1638 1647 1573 1550 1326 1328 1452 1491 1534 1537 1526 1511 1365 920 809 801 671 453 218 202 198 200 256 804 878 871 861 956 965 934 962 971 1752 1751 1741 1681 1470 1373 1312 1329 1398 1411 1232 1212 1406 1500 1568 1632 1640 1682 1687 1725 1737 1767 1788 1746 1480 1190 1194 1432 1543 1887 1894 1881 1813 1815 888 831 805 533 328 274 267 85 64 77 65 154 403 509 786 818 823 940 729 665 647 493 123 37 12 8 193 192 178 131 87 66 86 160 165 171 186 1104 1126 1183 1011 1009 542 464 450 458 584 662 688 534 468 224 27 19 23 76 61 92 150 122 111 112 135 104 58 100 70 79 78 1450 1451 1431 1143 1152 1253 1344 1350 1343 148 96 90 141 163 168 532 851 900 972 1184 1415 1801 1820 1868 1882 1913 1914 1939 1934 1932 1929 1944 1945 1910 54 28 34 174 172 187 437 536 894 884 908 928 925 992 997 1014 1586 1612 1617 1719 1964 1967 1966 1975 1330 1010 1022 687 676 758 765 791 1012 1070 1252 1294 1299 1454 1496 1521 1931 1906 1850 1806 1830 1837 1898 1920 1937 1859 1277 211 144 113 69 57 10 26 24 14 94 118 80 97 397 520 1195 1268 1322 1333 1085 793 799 588 342 255 221 241 1107 1364 1436 1738 1757 1761 1755 194 189 181 33 103 72 152 248 309 501 506 560 788 774 719 699 717 1148 1131 1558 1662 1763 1784 1789 1817 1826 1970 1972 1389 1341 815 461 413 401 357 376 373 391 794 836 1046 1050 1246 1230 1193 1216 1809 1822 1828 1807 1285 1264 1256 1106 1098 1065 1214 1251 1871 1884 1886 1880 1785 9 13 7 4 3 5 1069 1221 1615 1749 1750 1756 1736 1667 1563 1523 1475 1438 1465 1653 1702 1841 1933 1923 1930 1909 1875 1301 796 292 277 272 234 229 262 271 322 447 628 641 825 1144 1175 1402 1799 1805 1794 1665 1008 904 790 810 802 807 832 829 835 830 843 746 188 180 173 184 1123 1498 1501 1572 1637 1688 1698 1678 982 944 207 136 114 88 46 40 89 119 117 110 101 125 108 191 275 303 321 347 410 398 375 203 179 164 161 245 616 603 639 431 418 455 446 442 568 935 1125 1363 1711 1748 1778 1849 1848 1803 1579 1095 860 859 1060 1714 1722 1732 1729 1704 1691 1654 1489 1171 1039 1059 1121 1118 1032 1030 875 703 480 336 327 307 295 246 249 276 343 392 433 797 827 1004 1002 667 660 675 668 692 682 650 681 690 679 694 701 749 876 958 880 592 306 293 289 279 298 305 370 486 505 565 572 573 607 623 664 1168 1180 1220 1218 926 895 918 678 673 609 640 621 591 513 444 466 512 535 1034 1306 1434 1444 1460 1461 1555 1696 1731 1733 1689 1366 750 728 725 780 866 783 731 654 263 261 415 529 550 762 1308 1311 1962 1961 1922 1918 1833 1583 1356 1201 1241 1250 1507 1513 1520 1503 1474 1439 1395 1027 1013 967 953 951 959 712 642 554 485 481 517 569 947 757 748 803 769 736 720 656 519 527 677 740 841 921 897 855 837 745 716 865 1357 1367 1372 1427 1463 1418 1410 1237 1048 644 522 204 195 149 157 159 129 226 232 268 496 883 1017 1136 1189 1172 1242 1166 1345 1412 1764 1853 1846 1715 1693 1684 1701 1744 1791 1861 1921 1953 1926 1927 1957 1935 1936 1917 1925 1905 1827 1547 1160 828 726 627 709 706 898 893 1339 1394 1592 1610 1621 1629 1663 1758 1769 1774 1777 1776 853 723 792 1140 1170 1199 1137 567 526 495 551 655 651 903 929 952 975 1097 1155 764 657 632 566 637 601 388 350 356 311 270 266 237 257 269 302 333 426 400 411 420 429 753 766 816 849 1020 1093 1159 1007 1019 1209 1265 1205 1213 120 95 126 143 140 182 1015 1081 993 146 121 107 36 42 50 43 15 18 22 31 124 134 310 317 396 379 312 153 53 29 48 147 158 1314 1540 1739 1759 1780 1786 1766 1686 1669 1664 1648 1399 1164 1073 500 425 339 330 351 1211 1243 1267 1269 1052 824 777 602 617 645 541 553 586 561 596 575 570 574 598 615 610 949 912 887 715 571 507 389 371 385 580 710 1223 1229 1244 1288 1284 1198 1128 739 169 132 21 32 133 424 733 1026 1045 1163 1462 1435 1441 1425 1422 1419 1437 1442 1858 1869 1863 1860 1178 1114 1074 1043 1021 882 915 854 1025 1566 1556 1130 1122 942 233 231 230 545 556 838 991 977 1150 1176 1061 1031 966 844 806 781 787 850 885 868 705 702 708 620 521 530 454 445 490 548 684 727 734 557 492 338 335 313 326 325 332 362 361 383 427 742 663 680 648 614 563 497 354 308 300 210 196 199 217 1360 1613 1877 1897 1938 1928 1879 1800 1456 1224 970 957 1079 1262 1331 1530 1546 1499 1483 1387 1392 1485 1712 1811 1818 1842 1889 1919 1924 1915 1532 1430 1127 1134 1173 1117 1016 697 405 406 419 721 1559 1588 1624 1630 1633 1644 1642 1649 1793 1856 1893 1883 1824 1553 1554 1571 1569 1575 1591 1587 1585 1598 1620 1790 1838 1844 1829 1802 1792 1347 1335 1336 1325 1316 1318 995 945 412 390 380 381 363 374 393 482 754 909 1248 1281 1273 1147 1129 846 741 756 857 862 869 201 139 137 151 128 109 209 215 216 842 1047 1037 840 822 821 989 979 968 988 1179 1382 1903 1902 1874 1708 1636 1634 1645 1646 1529 1321 1323 1154 1101 1099 1082 1408 1810 1965 1969 1978 1971 1963 1831 1247 1077 1042 1051 1524 1623 1852 1916 1949 1943 1156 1138 1028 674 543 539 544 612 552 504 416 260 156 138 74 25 20 30 213 225 253 254 252 243 244 352 483 661 867 1062 1078 848 833 581 652 638 273 91 99 98 102 81 106 142 155 1517 1525 1495 1468 1578 1577 1619 1596 1589 1603 1473 1482 1396 1239 1259 1255 1337 1349 1779 1775 1836 1891 1899 1895 1843 1808 1804 1765 1771 1783 1876 1946 1976 1979 1977 1407 763 735 744 773 899 919 1023 1151 1270 1261 1227 1215 127 105 52 49 41 170 1231 1234 1238 902 847 819 771 755 751 955 998 1192 1202 1276 1670 1679 1616 1351 1346 212 190 116 130 1509 1519 1643 1651 1652 1660 1743 1728 1717 1713 1703 1659 1377 1066 1040 1053 1057 1063 1055 1049 1084 1120 1064 994 980 1041 1204 1135 1105 1072 1068 896 820 713 743 852 927 937 933 834 767 487 452 206 82 39 60 62 45 51 115 145 1518 1692 1710 1754 1760 1819 1823 1845 1958 1955 1947 1950 1940 1941 1912 1797 1773 1734 1723 1699 1694 93 73 67 55 44 489 515 510 508 761 779 711 1036 1539 1565 1561 1625 1626 1622 1590 1538 1541 1487 1484 1481 1516 1472 1508 1502 1494 1446 856 259 251 242 238 236 247 414 417 395 235 228 220 219 223 747 1222 1597 1639 1641 1600 1380 559 525 478 460 555 576 600 732 730 1274 1260 1266 1275 1291 1292 1289 960 879 872 1100 1348 1433 1492 1490 1486 1401 845 795 813 961 922 1001 974 939 1133 1119 1111 1157 1280 1536 1531 1512 1479 1058 672 590 579 578 1109 1825 1851 1855 1878 1865 1870 1854 1781 1697 1609 38 47 35 11 175 264 1440 1455 1457 1582 1601 1657 1655 1535 1528 1458 963 359 365 304 301 299 296 291 285 284 281 282 294 502 564 1219 1272 1286 1295 1236 1338 1417 1469 1504 1478 1416 1310 1228 1191 1090 633 430 404 320 314 316 407 599 1071 1384 1476 1576 1567 1549 1420 1409 1397 1352 1355 1340 1724 1742 1745 1747 1740 1735 1720 1666 1614 208 16 2 1 6 17 1240 1254 1319 760 635 631 595 605 597 700 718 722 589 582 56 63 176 
