qa194.tsp
cities: 194
runs: 194
avg cost: 31158.1
avg steps: 154.923
best: 24495

Best route:
173 184 166 160 120 83 68 77 67 56 53 61 39 7 3 2 11 72 115 112 118 88 74 69 70 64 45 58 34 29 22 28 75 113 141 144 126 82 6 4 71 114 127 130 98 65 1 20 63 36 80 87 78 60 27 15 19 50 133 143 171 193 188 185 168 165 158 124 123 128 131 109 100 73 48 49 32 31 35 42 12 81 93 103 119 125 172 192 194 179 157 142 134 137 140 163 161 164 138 105 108 107 106 89 85 86 94 102 51 43 9 10 5 30 40 33 26 24 14 23 76 121 151 159 152 153 177 189 191 174 181 178 180 162 167 170 155 148 135 129 117 116 25 16 8 18 21 17 13 59 62 90 99 111 104 101 132 145 156 149 146 139 154 147 136 84 79 92 97 95 96 91 57 37 47 44 52 54 41 38 46 55 66 110 122 150 175 183 190 187 186 182 176 169 
