zi929.tsp
cities: 929
runs: 929
avg cost: 545505
avg steps: 1220.24
best: 474128

Best route:
756 769 738 768 776 763 729 753 761 827 844 854 874 879 688 647 638 543 290 287 126 110 181 264 627 829 830 822 823 841 903 902 906 922 892 908 855 423 441 448 539 524 620 905 912 913 839 413 167 163 137 124 158 210 307 597 704 708 737 718 706 692 665 456 449 405 415 422 687 831 835 809 777 771 767 482 294 272 265 899 904 882 858 724 412 391 381 485 467 496 609 733 697 732 747 750 668 677 224 212 182 195 157 61 64 97 282 364 380 570 577 594 585 556 532 429 385 404 430 759 775 652 588 60 28 45 62 76 58 77 384 534 521 359 350 466 515 714 702 230 87 83 99 122 113 139 150 161 164 169 232 213 128 146 188 216 222 203 218 190 159 111 119 109 105 121 125 166 147 174 197 502 575 592 595 601 605 663 744 805 770 722 783 782 376 283 269 237 93 17 26 9 7 1 5 4 15 38 141 145 138 130 153 142 75 51 69 96 354 351 529 542 558 573 501 221 220 301 291 362 898 888 885 560 565 535 538 545 546 554 618 624 625 547 568 561 537 481 450 433 330 326 352 372 717 635 325 245 255 103 192 797 857 923 928 921 929 920 909 897 881 887 893 925 926 919 914 918 907 872 731 723 736 741 748 758 420 409 417 611 701 707 557 492 480 490 471 460 461 505 498 479 470 458 540 553 555 400 371 368 571 614 894 891 531 503 279 302 296 838 861 851 410 408 428 436 478 488 469 419 310 305 52 33 21 10 18 31 98 91 205 200 202 262 716 700 676 414 407 401 403 177 186 144 106 101 71 53 55 92 175 223 426 760 639 648 629 661 463 442 500 745 834 843 589 323 162 148 259 312 320 324 559 703 725 728 712 743 473 250 246 217 225 819 833 812 860 845 859 824 796 828 691 680 696 699 653 645 321 311 229 253 256 258 336 337 333 331 308 276 234 235 242 669 698 689 604 591 572 551 509 522 427 344 327 328 299 300 219 165 73 66 68 132 563 655 672 694 695 673 642 512 511 510 497 487 462 252 151 196 231 227 214 143 104 89 79 293 334 347 386 383 340 345 338 361 398 465 675 658 517 525 513 459 388 353 644 683 424 432 666 751 792 807 806 816 757 742 583 582 600 811 794 862 917 924 927 886 890 901 915 896 277 215 194 140 156 233 646 754 749 719 685 682 656 681 670 640 651 528 504 421 392 393 406 705 739 710 787 810 789 808 752 616 621 608 590 569 578 586 693 734 740 721 711 654 455 346 254 251 297 306 446 567 599 613 484 348 339 292 74 70 56 54 261 377 397 395 394 382 378 435 475 536 566 619 623 602 603 607 606 615 544 516 452 440 358 349 356 257 112 108 107 285 453 468 514 581 610 709 713 659 248 191 155 204 281 313 329 318 454 447 477 486 580 773 798 804 876 889 870 867 238 59 30 11 20 29 34 67 289 369 788 784 856 877 883 880 875 869 803 674 657 660 667 840 632 622 576 309 288 179 95 118 116 493 526 518 562 612 778 795 671 678 684 630 593 730 818 631 579 370 365 375 755 817 850 863 868 825 832 837 650 549 201 42 22 2 6 12 171 178 249 244 267 357 438 483 443 396 387 434 444 439 564 726 662 686 864 871 878 866 826 520 550 508 626 649 596 584 552 523 418 86 82 49 41 40 44 23 39 173 187 207 208 115 120 114 152 149 209 278 322 363 373 266 270 574 643 735 781 765 715 494 374 319 315 271 341 506 527 507 275 25 24 32 8 46 81 78 90 100 133 176 168 170 172 184 211 189 199 236 243 240 183 36 14 48 57 102 226 239 274 273 304 316 437 628 793 772 762 411 399 390 389 379 314 260 284 342 343 367 451 690 679 774 791 766 884 910 916 911 900 895 852 847 848 813 801 764 720 641 664 727 636 634 533 519 499 472 464 431 416 402 457 474 445 476 489 491 298 303 295 317 530 637 821 865 873 836 790 779 800 802 799 786 785 814 815 425 268 247 241 198 47 37 27 63 88 94 85 84 19 13 3 16 35 65 72 80 50 43 154 131 134 127 123 160 180 185 136 135 193 206 228 263 280 780 820 746 598 360 355 366 849 853 846 842 633 617 495 335 117 129 286 332 541 548 587 
