zi929.tsp
avg cost: 546793
avg steps: 1212.8
best: 465252

203 180 199 211 181 196 221 252 247 206 193 214 390 800 798 801 778 763 719 721 704 715 627 613 570 472 179 186 133 147 311 323 649 840 850 821 533 336 322 151 160 209 248 303 562 573 693 832 864 868 856 849 816 542 465 612 698 738 707 716 499 471 506 700 692 640 608 556 546 870 922 920 875 501 380 591 660 717 735 667 680 678 305 324 451 543 564 563 553 536 555 527 528 340 344 370 587 684 666 558 625 626 779 745 291 20 14 91 319 575 842 837 621 631 360 283 327 417 457 523 538 525 461 421 415 414 600 582 599 513 470 491 448 526 540 557 569 595 615 663 664 722 741 771 776 757 19 17 13 15 362 359 321 275 237 222 184 225 234 201 140 107 8 6 0 12 27 46 44 38 37 32 67 464 668 670 592 289 126 122 96 62 77 41 45 48 81 355 389 419 480 675 671 669 724 734 732 794 777 686 714 733 750 775 848 852 839 754 71 34 101 182 185 187 176 264 318 367 366 379 120 108 105 104 86 82 31 43 274 259 89 200 99 284 337 665 782 785 773 761 610 429 394 385 377 329 298 255 49 64 76 79 279 373 271 269 191 138 157 144 197 398 428 502 539 512 487 488 517 561 853 890 898 906 907 648 307 308 287 317 306 342 403 453 446 445 475 447 357 345 430 586 590 728 766 713 699 703 712 710 657 231 239 243 92 244 296 93 98 218 212 141 149 110 115 117 113 111 387 393 435 489 503 490 497 510 522 550 559 565 584 577 580 609 493 309 297 3 9 52 55 70 66 58 35 61 97 263 424 802 812 814 481 258 233 208 173 118 114 136 134 350 702 752 772 601 521 466 443 508 438 401 410 399 375 304 278 219 116 137 103 123 119 127 154 156 125 227 290 823 858 900 895 796 759 647 630 616 790 805 758 701 711 676 688 718 768 770 769 764 746 690 861 897 910 915 912 913 899 883 859 845 190 165 90 94 280 295 482 838 847 792 753 806 786 797 789 780 781 810 793 623 624 604 579 572 532 87 84 83 236 254 352 672 706 739 720 469 468 458 653 866 876 882 880 804 566 554 560 619 826 854 871 892 905 901 844 788 803 811 795 846 851 827 791 760 756 774 748 727 673 697 677 655 639 643 541 479 477 478 505 292 293 302 299 294 374 364 369 437 514 645 656 681 654 644 651 689 696 695 440 427 418 537 544 618 617 614 622 581 534 515 495 474 484 473 444 400 404 409 396 386 388 395 641 682 691 650 353 266 145 130 109 16 11 5 1 7 313 392 402 413 407 285 265 272 152 192 217 325 628 807 815 809 799 767 731 749 755 751 730 736 708 518 463 423 422 454 462 450 363 361 334 288 39 40 21 65 78 260 270 339 341 449 652 659 923 924 921 918 857 420 391 381 376 235 226 228 194 205 215 216 232 238 240 246 242 241 195 198 224 230 223 213 202 207 168 162 155 63 53 54 74 100 124 146 161 174 159 102 88 72 59 128 143 75 56 47 42 57 178 520 597 831 836 860 867 862 820 629 783 658 683 742 787 765 818 841 817 632 397 432 498 552 551 524 509 511 406 250 253 85 80 314 315 281 256 51 26 25 459 460 504 585 603 596 436 249 148 33 10 4 2 30 312 328 335 372 425 412 442 574 729 687 646 636 726 662 685 635 633 705 737 548 549 507 519 383 365 354 358 277 153 169 163 175 189 188 170 106 112 95 69 60 50 36 22 23 24 18 28 29 204 286 310 356 578 637 330 332 338 347 529 494 261 251 73 68 132 131 642 674 830 863 887 884 516 485 476 441 455 273 229 121 150 368 694 762 784 808 835 873 877 843 661 725 605 583 486 452 496 467 439 433 426 434 456 743 834 872 891 885 886 829 824 828 500 348 346 333 268 282 326 343 384 405 431 531 593 602 606 611 598 607 620 634 679 709 813 865 896 902 822 819 588 301 300 349 825 833 855 874 879 276 177 166 171 158 142 135 139 167 245 316 320 351 411 878 893 904 909 916 919 914 908 889 888 869 744 638 483 210 183 220 371 723 747 740 881 903 911 917 927 925 928 926 894 545 535 530 567 571 576 594 589 568 547 492 416 408 382 378 331 164 129 172 257 267 262 
