ca4663.tsp
cities: 4663
runs: 100
avg cost: 1.91731e+07
avg steps: 12316.8
best: 17687035

Best route:
4460 4346 4284 3830 3669 3144 2346 1320 1221 1227 1351 2243 1931 1963 528 309 257 561 1270 1231 1260 1063 484 347 363 372 305 500 499 490 539 575 665 666 1061 795 745 746 1233 2377 2307 2263 2159 2147 2128 2522 2390 2242 2241 2340 2429 2473 2758 2814 2780 2659 2305 1765 1373 1324 1341 821 763 786 836 901 917 960 2816 2732 3136 3047 3013 3141 3971 3954 3994 3977 3962 3512 3440 2828 2259 2444 2424 2394 979 664 512 550 523 933 1111 1847 1741 1713 1066 750 592 524 525 797 903 2075 2568 2447 2861 2295 2245 2341 2602 3146 3362 4034 4087 4071 2156 102 85 67 28 31 43 91 291 441 432 437 571 660 646 479 458 481 934 1184 1237 1481 1442 487 323 344 343 448 535 1954 3702 4220 4240 4299 4395 4455 4450 3924 3763 3602 3327 3148 3503 3442 3372 3437 2661 614 562 585 885 1042 975 852 787 890 718 823 657 624 177 238 331 443 768 845 1354 1541 1469 1429 1361 1366 1176 2173 2286 2214 2751 2879 2880 2782 2913 2476 2620 2628 2166 2129 295 294 463 468 590 462 466 513 609 682 631 736 916 953 1019 1189 1519 2792 2793 2388 2004 1616 1664 1488 1531 1704 1698 1743 2155 2521 2486 2542 2581 2319 2330 2151 2654 2784 3175 3257 3370 3324 3359 3416 3520 3690 3699 3585 3610 3558 2772 349 354 409 822 1018 1017 1065 1740 1800 2401 1939 1944 2283 2234 2547 2599 3067 2984 3394 3360 2923 2543 2384 2372 2371 2400 2996 3328 4118 4301 4292 4357 4304 4192 3992 3003 1793 798 717 684 719 3042 3459 3960 3979 4109 4142 4143 4147 4158 4166 4129 4014 3920 3873 3878 3854 3258 3087 3140 3184 3210 3390 3525 3554 3584 3631 3515 3563 3606 3506 3190 3278 3299 4130 4107 3947 3956 3435 3336 3335 3072 2727 2038 1893 1834 1826 1728 1705 1097 955 83 63 97 4646 4663 4662 4655 4648 4258 3826 3823 3801 3817 4198 4206 3663 3421 3053 2856 2836 2691 2532 2670 2717 2631 2746 2622 4363 4547 4631 4635 4634 4120 4102 3916 3876 3870 1958 1526 1484 1357 605 444 337 299 266 601 555 520 164 167 148 189 621 1750 1716 2012 2294 3771 3813 3788 3577 3430 3431 3371 3288 3085 3058 3007 3102 3240 3298 3428 4012 4049 4069 4270 4309 4254 4236 4365 4465 4489 4509 4512 3467 3169 2821 2994 3045 30 25 27 26 29 2366 3269 3405 3364 3375 3686 3762 4230 4205 4239 3914 3305 3111 2972 1596 1552 1459 1428 1410 1196 1281 3493 3422 3158 3201 3157 3036 2945 2102 1106 888 1092 1073 1030 887 1048 1228 1536 1445 1433 1434 1447 1951 2830 3651 3707 3679 3616 1532 983 929 1323 950 817 833 674 626 557 527 440 395 374 402 470 945 999 1162 1268 1279 1454 1222 1245 1251 1729 1683 1644 1594 1723 1566 1803 1821 1747 1258 1235 1165 1122 388 403 464 731 911 948 1134 1096 3367 3477 3546 3582 3740 3698 3751 4139 4197 4211 4133 4126 4121 4074 4103 4110 4075 4006 4051 3737 3612 1564 1278 1085 1116 1172 1141 428 381 314 302 397 1028 1994 3780 4246 4277 4328 4272 4310 4213 4215 4180 4054 4038 4159 4145 4125 4091 3725 2768 2743 2760 2870 3074 3212 3229 3208 3200 3284 3261 2951 2604 1848 88 106 146 157 283 1016 1241 1283 1866 1758 1753 2273 2222 3404 3579 3745 3935 3961 3999 3868 3931 4065 3986 3941 3942 4015 3842 3572 2326 2280 2168 2398 2254 1112 730 728 700 985 1177 1154 1031 1153 1224 1370 1253 1509 2196 2548 2557 1136 358 359 368 289 256 288 1266 1303 1508 1819 1757 1991 1782 1525 1386 1627 826 840 245 226 168 172 348 338 322 282 182 95 128 155 154 158 824 967 1419 651 516 873 574 565 438 377 405 457 633 2183 2266 2362 2431 2564 3365 3355 3351 3620 3810 3730 3547 3708 3132 3124 3070 2739 2876 2163 2332 2342 2331 2310 2987 3106 3325 3297 3412 3450 3560 3683 3656 3628 3599 3655 3640 3618 3523 3395 3248 3133 2990 2969 3397 3504 3519 3594 3595 3939 3968 3645 3548 3557 2983 2962 2563 636 902 973 930 1104 1346 1314 1305 1212 1070 708 568 895 654 2226 2462 2268 2227 2459 2358 2357 2747 2728 1140 753 597 413 420 364 284 213 352 406 379 378 332 1102 1038 1071 1369 1985 3349 3486 3964 3995 3980 4372 3550 3542 1890 1841 1824 1208 1151 1210 1205 1193 1125 1074 780 893 854 474 536 560 828 921 1681 1749 1769 2585 2135 3188 3239 3216 3076 3073 3103 19 20 2066 2835 4352 4592 4594 4582 4566 4273 4266 3959 3809 3706 3358 2976 2970 3110 3609 4048 4092 4115 4058 4005 4011 3930 3899 3827 3692 3276 2798 2515 2403 2185 2200 2109 1308 1213 1219 936 897 1411 2003 2020 1938 1742 1695 1706 1492 962 853 293 187 196 118 117 114 340 417 404 365 661 1043 1256 1226 1315 1339 1350 1406 1390 1876 1885 1845 1865 1232 946 1005 1014 1523 2069 2040 492 407 306 230 1367 1368 734 603 496 573 2509 2417 2329 2247 2461 2103 318 237 212 186 199 129 2131 2249 2333 2312 2914 3030 3046 3147 2932 604 205 209 408 411 418 755 2288 2320 2229 2208 2343 2302 2321 3189 3285 3034 2378 1973 1863 1818 861 639 599 538 455 493 944 3151 3455 3766 3784 3624 3592 3481 3068 961 469 507 689 690 694 1685 2136 2753 4317 4336 4333 4316 4297 3880 3516 3482 2812 2640 3121 3142 2704 2420 2345 2036 1099 483 319 260 290 816 1332 1355 1557 1611 1816 1897 1825 1980 3591 3834 4033 4060 4055 4064 3630 3539 3534 3681 3634 3589 2738 2550 2350 2158 324 255 281 308 1013 1337 1309 1362 1296 1155 839 301 194 2285 2623 2845 2795 2708 2457 1465 1311 1262 1316 1310 1983 1920 1987 2021 1972 1888 2064 2044 2088 2873 2716 2687 2777 2834 2779 2175 2056 988 984 1138 1214 1297 1280 1287 1178 756 679 655 653 273 274 426 494 754 622 1129 1543 1537 1380 1342 1255 1215 1077 1105 1206 1929 2077 2013 2878 2915 2956 2881 2905 2492 2096 2049 2206 2212 2236 1191 1059 937 868 869 747 715 672 1295 1495 1796 2883 3341 3318 3575 3576 3529 3166 3107 3029 3063 3081 2953 2252 1487 1763 1725 1770 1687 1855 2240 2363 2311 2584 3574 3953 3978 3932 3937 3573 3385 3423 3391 3225 2981 2855 1732 1760 1472 1272 1022 1121 1185 2978 2992 2979 2886 2922 2929 2847 606 559 246 263 254 231 239 240 216 185 153 126 70 80 1120 1335 1318 891 766 447 384 451 850 837 775 703 749 3346 4612 4650 4647 4643 4642 4607 4572 4413 4384 4243 3904 3719 3743 3613 3753 3824 3891 4343 4514 4576 4564 4575 4569 4577 4581 4587 4585 4524 4449 4446 4443 4442 4429 4241 3714 3614 3537 2911 2650 2693 271 276 275 225 236 691 1424 2293 2414 2495 2423 1923 1915 1854 2118 2231 2218 2469 2413 2079 1540 1535 1539 1530 1577 1223 710 542 563 366 339 445 482 488 530 1284 1389 1387 1925 1992 2106 2465 4222 4252 4285 4261 4214 4076 3496 3366 1078 925 898 875 583 544 353 71 59 55 72 77 111 109 115 2789 3197 3565 3777 3785 4035 3894 3858 3862 3866 3797 3674 3226 2571 2512 2152 2116 2480 2442 2374 1588 1045 968 886 1839 2014 3246 3462 3782 3691 3695 3747 4068 4002 4062 3972 4023 4004 3795 3622 2446 1878 2142 2657 2677 2638 2965 2111 2113 2140 2189 2130 2225 2597 3010 3049 2989 2964 2734 1949 1957 2810 2719 2544 2517 2291 2678 2686 2567 2194 1697 1294 1904 1787 1642 1306 566 498 505 863 1379 2696 2808 3274 3267 4326 4344 4274 4387 4407 4419 4425 4417 4291 3825 3160 3308 3252 3044 3354 4267 4389 4383 4385 4178 4172 4216 3925 3787 3718 3680 3474 3382 3388 3232 2971 2891 2157 2174 1962 1182 1160 1109 577 641 1054 1117 2802 2890 2840 1633 1591 1640 1666 2080 3752 3661 3687 3605 3562 3627 3675 3748 3885 4324 4392 4208 4189 4242 3845 3883 3907 4017 3981 3774 3812 3088 3054 3064 3507 3731 3756 3879 3769 3600 3247 2921 2220 2356 2251 2055 2074 1265 1216 1491 1545 1597 1880 3122 4134 4144 4135 4152 3948 222 180 159 121 174 149 181 1093 1057 1094 1040 1064 1058 1062 1119 1115 977 1082 1550 1503 1439 1377 1551 1494 1886 1739 1784 1544 1407 1421 1343 1230 1056 1011 743 830 1100 1101 1047 923 607 546 628 978 1000 1072 1068 1091 1114 1003 495 219 234 325 345 303 144 100 103 2202 2395 2215 2428 2361 2487 2723 2684 2791 2817 2837 2468 2407 2406 2576 2634 947 849 835 678 669 723 629 928 966 1200 1209 1201 1084 587 540 711 543 350 355 963 3221 3754 4233 4367 4373 4371 4362 4338 4191 3927 3779 2566 2478 2479 2493 2437 2463 2051 1842 1448 1443 1464 1762 1836 1891 1990 1813 1768 1653 1660 1635 2863 3715 4078 4174 4161 4388 4199 4322 4318 3857 3855 3564 2731 2381 2553 2672 2561 2458 2353 2352 2589 2645 2699 2671 2402 2560 2775 2300 2279 2491 2593 2801 2800 2655 2348 1628 1918 1871 1860 2612 3463 3688 3427 3323 3295 1864 1690 1505 942 998 1103 1130 899 867 847 688 709 620 608 477 883 1033 1027 900 645 579 534 380 371 333 809 829 844 1002 3919 4210 4202 4225 3759 1882 1471 1029 1069 1060 1408 1435 1393 2108 2614 3050 3215 3625 3900 3909 3744 3696 3531 3174 3109 3098 4305 4390 4411 4609 4608 3694 2000 1993 3309 4451 4457 4466 4506 4519 4497 4434 4378 3711 3676 3765 3973 3996 4043 4271 4114 4094 4021 3989 3471 3555 3452 3502 3815 4045 4019 3984 3892 3835 3750 3447 3191 2943 2868 3016 2973 2815 548 475 511 677 676 663 446 425 370 390 454 553 504 431 423 439 485 502 569 630 771 1207 1877 1986 4593 4645 4644 4637 4561 4327 4321 4306 4380 4424 4462 4504 4552 4542 4510 4409 4347 4295 4289 4286 4430 4536 4551 4507 4563 2806 2852 2819 2803 2133 2053 2494 2537 2594 2422 2091 2035 1581 1333 1336 1356 1275 1012 1026 724 2030 4376 4522 4565 4573 4534 4190 4030 3717 3406 2794 905 752 486 514 433 427 2336 2720 2591 2894 3129 3376 3424 3726 4300 4401 4398 4260 5 10 24 1988 1974 2046 1910 1921 1881 1900 1927 1899 729 253 258 412 480 1430 1462 1478 1675 1571 1605 1861 1872 1936 1959 2042 2897 3419 3561 3536 3517 3211 3223 3027 3112 3126 3446 3524 3489 3134 2846 1970 1979 1843 1786 1734 1721 1969 2019 2037 2041 1905 2043 2031 2718 2884 2925 2754 2705 2439 2325 460 416 394 1010 1171 1123 1453 1498 1533 1440 706 770 383 312 321 50 53 48 79 82 61 81 389 675 1089 1135 1945 3099 3387 3758 3822 3800 3626 3429 1940 1273 1199 1157 1190 1170 1198 1164 941 1049 1304 1609 1805 1780 2098 2600 2504 2516 2164 2112 2318 2190 2248 2255 2217 2048 2067 2355 2391 2187 1680 1663 1735 1645 1631 958 619 815 997 1898 1884 2621 4269 4275 4307 4332 4342 4288 3803 3495 2778 2750 2540 2389 1930 1731 1502 1458 954 919 1007 1050 1139 1291 2617 2453 2441 2714 2896 2924 4141 4181 4169 3781 2832 2864 2865 2831 2613 3154 3322 3425 3347 3204 3061 3123 3207 3402 3533 3772 3818 3929 2656 2603 2627 2954 3414 3593 3633 3705 3722 3689 2958 2805 2519 3313 3306 3185 3094 3193 3168 3724 3859 3969 3990 3032 805 613 716 701 625 699 632 658 659 586 612 858 2203 3026 3161 4441 4447 4480 4533 4598 4595 4603 4602 4493 4136 3652 3639 3678 3712 3617 3381 3220 2531 351 190 217 473 1637 1828 1909 2065 2119 2143 3186 3187 3250 3426 3499 3514 4003 4223 4255 4302 4303 4276 4259 4238 3940 3505 2392 2386 1996 1730 1677 1648 1629 1603 1709 1661 1124 1192 567 310 130 116 122 52 65 74 136 188 248 2448 3331 3415 3401 3543 3653 3697 3760 3847 3846 3819 3738 2520 2483 2539 2528 3075 3735 3783 4000 3987 3988 4001 3921 3746 3581 3649 3703 4016 4386 4605 4625 4629 4636 4639 4599 4518 4052 58 57 38 517 552 618 617 788 878 808 843 799 880 1444 1928 3256 3457 3492 3369 3206 2920 3012 2762 2900 2919 2893 3182 3293 3733 3729 3757 3621 3434 3538 3811 4053 4415 4412 4421 4529 4515 4499 4420 4212 4164 4040 4010 4029 4047 4408 4470 4456 4468 4475 4474 4358 4163 2351 2364 2426 2438 2530 2573 2641 2606 1889 1820 1737 1789 1363 1358 1338 1334 1312 1020 1006 1520 2024 1995 21 8 17 2749 2898 3203 3115 3145 3116 3084 2649 2635 2404 2730 2709 2763 2761 2807 2527 2335 1901 1827 1665 1615 1840 3473 3654 3596 3535 3580 3454 3556 3727 3983 3966 3884 3672 3528 3060 3149 3089 2980 2643 2642 2844 2497 2445 2630 2306 2022 2032 2029 1400 1328 616 415 414 421 1098 1975 3156 3869 3944 3955 4150 4031 4008 4066 4042 4061 2570 2301 2278 2418 2298 2578 2565 2460 2467 2433 2309 2416 2508 2204 2380 2906 2843 2829 2198 2090 2016 2018 2866 2938 3379 4122 4183 4079 4026 4057 3840 3778 3792 3998 4219 4200 4231 3915 3881 3938 4234 4364 4354 4410 4393 4404 4148 3831 3875 3732 3549 3491 3638 3775 3864 3965 4046 4077 4117 3946 3806 3172 2315 317 393 386 509 784 783 757 642 547 881 1353 1352 1276 1329 1285 489 453 422 399 650 811 1187 1785 1914 1916 1997 1149 990 800 648 320 334 335 280 554 970 874 862 992 1271 1327 2514 2574 2729 2365 2379 2237 2199 1639 1607 1490 1181 1146 1095 748 627 472 113 93 178 252 330 376 1234 1606 1767 1776 1775 851 584 671 692 846 952 1254 1263 1269 1873 2197 2669 2707 2624 2644 2899 2833 1485 1001 912 872 859 812 1288 1242 1264 1364 1399 1326 986 1032 972 959 906 860 452 515 510 813 790 781 927 298 259 233 203 215 184 2148 2759 2848 2935 2999 2966 3038 3568 4156 4436 4463 4472 4473 4418 4262 4235 4098 4018 1247 982 687 401 435 449 430 357 32 22 14 13 49 54 76 640 939 769 598 531 987 3541 3494 3490 3090 2963 2715 2410 2039 2026 2025 2177 2648 2608 2689 2697 2706 2559 2695 2660 2698 2773 2885 2997 3296 3304 3344 3545 3682 3739 3755 3761 3841 3888 3910 3798 3275 2928 2722 2673 2451 2562 2939 3105 3439 3635 4037 4171 4487 4461 1643 1674 1924 2008 1942 1717 1580 1678 1513 1466 1482 1425 1438 1529 1511 1618 842 965 4422 4555 4571 4574 4503 4490 2313 1626 1613 1420 1325 1302 1437 2201 2523 2701 2685 2490 2579 2838 2823 2849 2799 2430 2618 2101 1238 767 564 637 572 774 848 1236 1347 1397 1654 1772 1966 2094 2171 1582 2001 2265 2287 2253 2274 994 737 681 644 727 726 735 643 556 311 249 296 882 1395 1436 1515 1625 2023 2683 2633 2665 2569 2554 2933 3488 3643 3877 4013 3991 3853 3644 3619 3526 3396 3307 2765 1186 1081 778 739 796 1145 1248 1317 1807 1802 1808 3195 3551 3598 3741 3742 2235 200 162 137 139 147 424 1693 1837 1875 1907 3764 4590 4653 4630 4638 4588 3513 3510 2181 1619 1601 1617 1652 1647 1560 2154 2081 3544 3569 3521 3501 3398 3096 3097 3048 3020 3028 3078 2910 336 396 508 593 702 765 634 686 1133 1161 1156 2284 3844 3874 3871 3905 3865 3636 3623 3660 3475 3393 3319 3164 2626 1147 892 558 595 594 832 1025 1173 1168 1150 1203 1167 1622 1673 1727 1703 1699 1751 1688 1702 1009 1083 1052 1053 1046 1037 1023 533 361 385 392 242 262 1299 1620 1754 1779 1568 720 742 879 1409 1858 3933 4151 4400 4494 4498 4377 4294 3243 3272 3294 3056 3041 3083 3031 2095 1788 1398 1388 1340 804 776 611 705 647 807 1051 989 2505 2590 2901 2764 2367 2162 163 191 220 326 2010 2549 3171 3659 3673 3480 3348 3092 3051 2927 2144 1565 1501 1194 1142 1137 1239 1331 1641 1655 1832 2257 1672 1667 1679 1218 214 142 175 161 169 171 292 2694 4237 4580 4570 4553 4544 4567 4579 4578 4568 4323 3527 2666 2474 2867 3701 3700 3646 3378 3317 3340 3352 3265 1036 1090 1008 1452 1476 1499 1473 1457 1534 1604 1587 1561 1563 1937 2912 2712 2733 2770 2742 3662 4218 4154 4157 1833 857 762 773 1307 600 519 436 1229 1391 1682 1691 1745 1744 1374 1240 434 398 391 360 373 2160 2354 2609 2809 2930 3071 3015 2909 2700 2529 1528 1292 1384 1376 1401 1426 1578 2850 2872 3244 3301 2455 2498 2482 1879 1952 1759 1585 1289 904 827 841 2126 2349 2221 2940 3135 3139 3289 3484 3786 3767 3153 2145 99 98 46 45 42 68 278 1712 1790 1908 1960 2110 2615 2472 2647 2756 2646 2781 2664 2450 2449 2616 2757 2931 3400 3466 3684 3720 3709 3721 3666 3093 2396 34 40 90 206 759 760 1405 1446 1461 1483 1507 1516 1514 1414 1418 1396 1432 1460 1524 976 779 2006 2121 2502 2513 2501 2588 2860 2466 2454 2538 2726 3080 3101 3120 2946 2713 3039 3009 3022 3014 2957 2988 3002 1911 1903 1867 1850 4086 4187 4009 4099 4039 2859 2087 1455 685 287 269 228 179 197 208 247 870 1249 1651 1612 1583 1174 1152 1075 1055 1175 1517 1614 1778 3004 3023 3131 3196 3245 3890 3949 4341 4374 4558 4541 2851 2059 1126 1127 922 707 346 300 327 1188 1179 1144 1015 1080 2146 2485 2161 2137 2224 2552 2692 2675 2592 2822 3104 3137 3176 3052 2991 3033 2950 2977 3138 3202 3283 3511 3611 3736 3852 3958 3872 3808 3648 3647 3522 3451 3403 3664 3770 4467 4527 4535 4538 4550 4560 4562 4548 4523 4501 4448 4432 4224 41 33 39 202 250 792 1004 981 980 855 831 971 940 991 1076 1128 894 652 491 456 529 545 465 591 1345 2663 3117 3263 3262 2853 2587 1792 1971 1766 1383 1313 1301 1225 1261 1349 1344 1348 1359 1180 375 313 243 251 267 342 1159 1360 1632 1658 1636 1624 1689 1718 1736 1755 1870 1859 1752 1692 1638 1365 1375 1319 1250 1416 1504 1475 1506 1522 1521 1558 1598 3342 3497 3837 3882 3838 3814 3728 3650 2572 2916 3509 3444 3339 3316 2303 1646 1634 1592 1546 1599 1555 913 87 66 56 37 44 84 132 1290 2324 3219 3436 3608 3850 4022 3829 3836 3833 3889 4221 4280 4351 4360 4402 4444 4596 4627 4610 4606 4406 2375 2526 2596 2725 4282 4355 4477 4554 4584 4334 3587 3570 3567 3590 3768 3805 4245 4250 4036 3918 131 108 125 138 4025 4106 4311 4349 4356 4296 4320 4345 4339 4312 4116 2002 1547 1538 1548 1404 1244 1259 820 876 785 697 602 713 683 764 693 725 744 2100 4366 4540 4545 4549 4478 4471 4396 4375 4350 4281 4337 4439 4452 4464 4511 4521 4530 4525 4516 4335 4123 4124 4153 4104 3976 2099 2496 2556 3183 2786 2703 2724 2771 2737 3065 3374 2195 1575 1608 1686 1696 1707 1671 957 814 864 791 721 856 1158 1169 1282 1777 2752 3251 3458 3448 3469 3530 3532 3417 3238 2944 2238 1659 1382 1371 1372 1274 1467 1512 1549 1586 1572 1934 1817 2120 2347 2607 2503 3069 3253 3483 3470 3586 3588 3670 3461 1694 838 698 819 782 866 909 758 712 889 896 1950 1984 1838 1783 1926 2233 2211 2182 1710 1669 1650 1427 1417 1527 1684 1110 615 806 1044 1887 1846 1810 1809 1862 1844 1919 2376 2405 2296 2577 3008 3019 2895 3018 2887 2936 3095 3849 4177 4293 4251 4232 3793 3776 4492 4513 4517 4528 4502 4488 4381 4279 4253 3903 3867 3363 3268 3043 362 268 285 286 235 207 210 2415 2783 2652 2651 2711 3086 3438 3693 3273 3091 3040 2518 2464 2411 1562 877 638 134 96 78 101 110 112 143 173 170 521 549 198 221 218 265 272 400 476 996 1118 1211 1204 1277 1422 1423 1500 1468 1662 1726 2260 4369 4526 4537 4543 4591 4483 4414 4105 3911 3922 3315 3242 3001 2967 3114 3368 3411 3945 3982 3821 3021 2871 2767 2766 2432 2369 2368 2397 2276 2277 2408 2383 2382 1815 1589 1559 1573 1715 1714 1724 1761 2132 2170 2050 1976 2153 2180 2262 2239 2525 2267 2124 2114 2281 2385 2534 2535 2676 2637 2477 2582 2667 2721 2127 1479 1183 1143 1107 1041 884 802 834 1415 1441 1764 2827 2882 3108 3150 3162 4604 4622 4618 4617 4611 3271 3282 3143 3066 2323 2062 2070 1982 1738 1746 2063 1935 2105 2084 2085 2818 3923 3898 4090 4290 4329 4313 4298 4188 4207 4193 4203 3897 2250 2282 1771 1630 1610 1656 1668 3218 3607 3603 3641 4459 4626 4640 4628 4244 3734 3677 3559 3498 3266 3155 2902 2854 2682 2308 2360 2186 2275 2184 1 2 16 18 2610 2949 2952 2904 2941 741 471 570 695 673 656 924 914 1450 1493 1510 1497 1554 2027 2117 2393 2219 2272 3967 4601 4652 4620 4623 4379 3901 2139 2104 2188 2089 2598 1857 1856 1917 1874 1978 2028 2107 2788 2790 2149 1932 1946 1989 3807 4170 4184 4204 4160 3950 3860 3658 3583 3005 3024 2918 2748 2813 3180 3456 3802 4073 4088 4095 4168 4176 4131 4056 3851 2009 1774 1542 1595 1293 1024 1039 1381 761 772 738 751 825 777 1243 1961 2586 3260 3310 3181 3237 3214 3011 2787 1518 1394 1431 1449 1480 1456 1392 1621 1086 1131 1132 1108 1087 1079 2015 3179 3934 4100 4227 4331 4325 4319 4195 4186 4179 4217 4175 4085 3749 3127 2877 2435 2511 2636 2755 2735 2264 522 506 461 576 450 588 541 501 518 532 581 578 589 670 478 382 297 211 86 89 92 2060 2841 3287 3177 3194 3152 3082 2776 2481 2179 2290 1977 1965 1913 1823 1835 1852 2373 3259 3896 3912 3928 3913 4072 4050 3975 3997 4097 4162 4138 4140 3957 3974 3893 3895 3642 2484 2082 459 497 596 635 803 1252 1267 1322 1385 1246 951 943 926 680 714 610 1021 1034 1035 993 1067 1217 1794 1953 2033 2316 2339 2524 3119 3128 2961 3178 2858 2857 2804 2595 2292 2271 2328 2545 2629 2639 2054 1998 2842 3597 3552 3468 2926 2892 2875 2907 2820 3059 3159 3300 3478 3479 3926 4127 4111 4032 3963 3710 3518 3508 3410 3235 3356 3384 3685 3848 3887 4067 4082 3985 3832 3629 3130 3163 2005 11 9 6 4 1964 2078 2193 2937 2889 2995 2825 2452 2541 2506 2359 2338 2507 2176 2244 2205 1822 1829 1830 1804 2123 2297 2488 60 64 51 36 35 123 127 133 145 151 270 315 2337 3205 3333 3353 3380 3312 3553 3970 4007 3863 3856 3816 2869 2510 2399 2533 2942 3035 3077 3062 3249 3270 3332 3233 3173 3125 3228 3334 3723 3790 3839 3861 4249 4348 4403 4453 4484 4486 4485 4399 4438 1892 1853 1795 1967 1896 696 387 152 124 120 94 75 73 47 2986 3290 3361 3326 3224 3280 3337 3487 3357 2769 2409 2169 2076 2058 2057 2619 2797 2575 2440 2471 2959 3311 3716 4427 4469 4482 4481 4479 4476 4431 4435 4440 4416 4394 4382 3789 3794 2611 2658 2811 3908 4454 4589 4613 4632 4633 4624 4616 4615 4559 4556 4426 4278 3472 3399 3170 3213 3227 2917 1981 1477 1202 1166 935 789 649 442 369 277 279 316 668 623 503 526 419 227 192 165 193 195 223 801 810 871 964 995 1556 1720 1733 1883 1922 1956 1947 1933 2071 1968 1948 1814 1623 1489 1451 1902 2680 2985 2993 3254 3432 3443 3389 3373 3320 3165 2998 2475 2555 2165 2191 2207 2228 2192 2824 3079 3017 3704 3886 3906 3902 3796 3804 3302 2425 2546 1781 1801 2086 2327 2334 2387 2304 2210 1869 1831 1895 2092 2322 2421 2412 2344 2270 2230 1894 1701 1657 1676 1719 1708 1906 2073 2045 3449 3540 3465 3433 3409 3321 3277 3241 3292 3291 3453 3485 3571 3601 3632 3820 3993 4089 4194 4201 4182 4257 4287 4256 3773 3345 3420 3500 3418 3330 2261 2258 2232 1806 1286 1330 1590 1570 4020 4314 4353 4437 4500 4495 4520 4597 4621 4656 4654 4649 4531 4263 3386 3231 2688 2662 2632 2605 2601 2558 15 23 12 69 261 467 1579 1574 1567 1593 1600 1553 1486 1470 1474 1463 1412 1403 1298 1321 1413 1402 1773 2072 2061 1799 1649 1584 1378 1300 62 7 3 2213 2903 3199 3222 3343 3303 3057 2774 2681 2668 1163 1257 1197 931 918 932 974 1220 2960 3209 3383 3408 3407 3413 3464 3566 3637 3657 3668 3329 3338 3281 3236 3192 3255 3230 4283 4268 4340 4370 4397 4405 4423 4445 4491 4496 4505 4539 4546 4557 4583 4586 4600 4614 4619 4641 4508 4433 3917 2499 956 341 232 241 204 229 1148 3377 3667 4128 4196 4361 4359 4264 3578 3392 3118 2796 2551 2736 3006 3025 2948 2580 2256 2141 2068 2034 2710 2702 2740 2741 2489 2216 2167 2583 2744 2745 2826 2862 2888 2839 2436 2419 2653 2785 3000 3350 3460 3615 3604 2679 2470 2443 2093 1569 1113 969 949 537 176 135 141 140 201 304 551 1602 1748 1798 1912 1941 2536 4657 4659 4661 4660 4658 4651 4532 4368 4165 4093 3943 3843 3799 4209 4185 4027 4080 4044 4081 4108 4096 4146 4101 3951 3936 3952 4070 4083 4112 4113 4084 4149 4167 4173 4155 4132 4119 4248 4247 4265 4059 4041 4028 4024 3791 3476 3445 3441 3286 3314 3217 2947 2975 2982 2968 3113 3055 2955 2317 107 105 104 119 3198 4063 4229 4330 4308 4315 4228 3828 2874 1999 1797 1756 1811 1791 2223 2138 2434 2299 1851 1868 1849 2246 2370 2122 733 722 793 907 915 908 818 2172 2427 2456 2625 2007 2115 2289 2269 2150 410 367 244 166 150 156 160 183 224 307 662 938 2052 2209 2178 2097 2125 2083 2134 1722 1711 1943 2314 2500 2690 2674 2934 2974 3037 3167 3234 3279 3264 3671 3665 3713 3100 2908 1955 1088 740 704 429 328 264 329 356 920 2017 2011 2047 1812 1670 1576 910 794 732 582 580 667 865 1195 1496 1700 4137 4226 4391 4428 4458 
