mu1979.tsp
avg cost: 1.18157e+06
avg steps: 2923.92
best: 983108

633 1037 1203 1286 1292 1303 1310 1328 1532 1567 1577 1896 1911 1905 1870 1835 1642 1524 136 160 169 1277 1744 1800 1861 1917 1978 1975 1950 1656 1604 836 473 417 394 378 590 664 665 642 613 482 391 382 360 422 537 710 747 929 871 837 866 791 759 555 246 250 237 227 217 214 223 221 396 419 465 413 365 347 355 377 533 565 660 895 684 650 834 1124 1154 1313 1309 1312 1221 1086 775 1125 1349 1344 1342 1376 1416 1413 1090 953 918 1362 1598 1585 1595 1534 1333 1052 1005 876 889 851 770 903 1164 1319 1343 1301 829 746 188 187 211 584 1380 1371 1356 1366 1337 1133 259 72 41 35 66 270 313 304 258 235 230 228 232 239 267 275 971 1182 1308 1360 1439 1429 861 868 890 788 1106 1088 842 856 1171 1126 1321 1258 949 966 958 841 828 936 956 955 1353 1351 1385 1395 1420 1442 1462 1387 1295 1162 1187 1547 1897 1914 1918 1924 1952 1930 1949 1741 1731 1440 1178 897 883 832 507 505 546 478 477 476 699 682 554 483 350 329 335 326 459 996 1218 1463 1461 1438 1455 1447 1434 1195 1114 845 574 421 334 293 281 285 346 463 563 659 991 1160 1290 1275 1008 1020 946 882 632 639 789 750 700 701 727 723 821 978 935 605 467 471 487 531 522 492 486 489 453 446 430 456 493 529 572 815 1511 1519 1580 1806 1838 1851 1754 1755 1695 1686 1229 831 792 802 979 1053 1142 1062 1331 1510 1495 1477 1460 1467 1386 1432 1306 813 614 597 577 593 509 514 515 513 1094 1606 1830 1874 1862 1821 1788 1751 1760 1777 1844 1912 1943 1921 1745 1742 1655 1502 976 875 624 340 222 219 218 247 321 500 686 771 1198 1243 1222 1006 1003 1127 1263 1324 1872 1871 1816 1815 1746 1679 1667 1646 1636 1651 1719 1948 1969 1973 1977 1974 637 524 501 863 1030 1064 1259 1280 1294 1300 1288 1265 1235 1204 1136 1113 1544 1543 1518 1516 1508 1443 1400 1352 1111 1009 1147 1060 1097 1105 1212 1132 1248 1223 1166 1148 1058 1032 1067 1072 1087 1104 1134 1279 1289 1472 1756 1770 1785 1783 1271 1207 972 778 865 818 733 602 205 74 61 73 1078 1323 1720 1879 1906 1894 1903 1886 1847 1854 1864 1877 1865 1842 1668 1647 1632 1584 1157 553 405 418 826 1808 1913 1951 1926 1893 1801 1673 1617 567 236 225 234 277 356 348 322 323 330 374 438 557 997 1109 1139 1224 1177 1155 983 202 54 29 163 999 1377 1464 1451 1234 1039 1033 617 615 774 943 974 941 931 947 916 888 779 1019 1042 1092 1354 1401 1374 1414 1569 1614 1615 1616 1611 1793 1794 1492 1437 1163 1054 1011 1038 1048 1076 1015 886 874 1315 1326 1446 1450 1478 1473 1304 1040 901 726 683 694 764 797 807 825 1654 1657 1629 1605 1512 1246 1211 1422 1506 1496 1470 990 1012 1179 1219 1208 295 284 131 97 45 105 168 216 287 1866 1887 1852 1723 1484 1252 1200 1240 1249 1407 1476 1409 1369 1399 1021 458 290 278 303 352 397 388 595 731 819 688 663 654 622 612 777 752 808 724 741 973 989 977 1045 1084 839 799 838 867 969 960 1041 1515 1799 1798 1858 1856 1717 1658 1664 1663 1704 1769 1792 1811 1826 1832 1329 1079 1004 913 908 1266 1291 1274 1024 915 491 253 251 248 342 403 560 705 645 404 400 480 628 601 648 532 873 1158 1209 1073 387 328 242 229 233 241 256 706 730 1103 1202 1251 1357 1346 1358 1241 934 1089 1225 1368 1372 1412 1457 1479 1501 1493 1528 1359 51 48 14 11 13 47 89 204 657 1077 1140 1128 1238 1348 1393 1394 1403 1418 1729 1740 1743 1761 1753 1713 1653 1641 816 806 768 920 1083 1236 1365 1487 1490 1398 1390 1257 1260 1205 782 200 190 198 209 220 551 781 787 986 1061 1186 1197 1201 570 327 325 429 697 728 975 1173 1144 319 315 320 314 310 343 308 249 243 362 406 412 409 408 266 194 10 34 107 1612 1768 1962 1966 1965 1931 1711 1504 1364 1184 1056 1043 870 869 995 1601 1672 1804 1888 1902 1937 1945 853 776 616 582 592 591 541 579 668 1098 1047 919 548 262 182 177 2 3 4 193 880 1096 1101 1320 1327 1325 1239 1196 1193 794 742 743 552 674 666 783 909 904 957 893 912 891 767 753 823 795 830 892 562 521 527 518 502 240 124 100 128 141 110 57 94 156 185 1517 1625 1624 1589 812 534 263 144 114 99 24 75 336 344 671 948 911 729 721 1018 1210 1247 1255 1283 1272 1115 1183 1334 1791 1825 1820 1807 1734 1542 213 112 126 178 282 306 338 305 279 58 90 148 135 137 121 83 132 142 134 162 161 111 125 50 59 104 145 170 176 186 179 172 423 926 1050 1066 1141 1156 1168 1215 1316 1367 1391 1634 1643 1619 1573 1307 1269 1481 1480 1509 1553 1568 1563 1551 1100 896 311 255 208 197 254 428 547 629 732 1161 1237 1214 1220 1233 1110 1145 1143 1152 1174 1000 950 784 692 520 410 133 158 296 297 302 324 332 448 539 540 437 424 389 339 383 386 611 680 670 678 756 1016 1130 1137 1075 1082 1023 472 442 441 765 860 951 981 844 877 984 1035 1868 1935 1956 1947 1648 1531 288 294 298 345 722 988 1049 1159 1150 1059 1165 1192 1131 1119 1055 439 434 470 479 461 575 652 596 599 598 634 718 713 725 523 416 399 353 368 420 426 499 1556 1694 1703 1715 1721 1738 1771 1789 1766 1345 196 84 123 122 109 181 260 510 656 744 761 754 858 1025 1044 1065 1244 1253 1232 1068 7 8 12 86 165 1112 1121 1122 1129 192 180 184 1276 1281 1610 1678 1759 1764 1895 1904 1940 1923 1790 1590 1170 1185 1417 1514 1955 1960 1961 1971 1968 1120 734 737 679 669 740 884 843 1081 1091 1256 1341 1335 1299 1250 516 484 358 380 371 385 447 466 444 443 445 425 407 354 292 300 367 411 1408 1630 1730 1733 1736 980 963 1031 993 964 712 619 503 450 301 291 289 698 1513 1557 1579 1592 1600 1582 1622 1685 1689 1627 1482 1458 1459 1415 1423 1311 1181 1093 1085 1153 1305 1230 1227 1080 207 191 183 1350 1814 1882 1932 1927 1827 1001 907 881 885 887 1013 1010 1175 1169 1046 1526 1581 1607 1620 1602 1575 1503 1453 1445 1435 1571 1644 1645 1561 564 427 474 589 1336 1340 1875 1873 1818 1784 1594 1500 1507 1497 1538 1529 1475 1421 1116 649 621 641 758 1180 1546 1787 1857 1919 1954 1963 1976 1972 1941 1942 1379 1176 402 361 369 431 618 549 571 526 561 655 790 780 1123 1802 1829 1813 1805 1752 1728 1727 1725 1708 1702 1671 1206 772 672 675 662 623 627 1623 1710 1712 1591 1466 1444 1454 1392 1375 1322 1318 928 653 210 143 96 52 40 150 174 199 268 271 283 286 312 495 485 475 462 316 215 212 201 203 265 307 351 349 381 376 393 924 927 1051 1242 1273 1270 1264 1254 1339 1425 1402 1383 1026 1017 708 481 460 457 392 359 357 373 370 433 508 847 850 970 985 1108 1099 824 809 801 968 1036 1833 1876 1958 1953 1920 1578 1151 942 872 643 530 401 280 276 224 92 49 42 108 77 745 1190 1189 930 167 166 153 159 65 39 26 31 44 46 37 27 53 70 91 69 78 38 60 206 341 414 451 511 763 719 905 922 811 130 64 32 30 18 9 20 28 244 902 1069 1404 1427 1419 1441 1456 1452 1448 1465 1449 1428 1424 1397 1188 1117 1057 820 798 751 704 677 703 685 748 736 739 735 757 833 800 749 810 1029 878 690 695 667 709 687 900 1488 1533 1640 1618 1659 1677 1697 1633 1650 1665 1687 1714 1737 1775 1776 1763 1758 1757 1705 1675 1676 1762 1828 1860 1900 1849 1471 1378 1373 1485 1558 1559 1537 1540 1436 661 636 630 691 1167 1631 1639 1670 1681 1684 1652 1231 609 525 542 580 651 925 1332 1747 1748 1724 1688 1555 1330 1262 1261 1138 1071 1022 840 519 452 454 455 512 536 859 857 496 435 337 318 317 517 559 626 494 273 274 261 257 252 245 238 231 269 846 1028 1302 1389 1554 1593 1621 1635 1669 1692 1732 1726 1735 1739 1774 1765 1700 1603 1576 1499 1491 1474 1468 1489 1521 1522 1525 1520 1539 1523 1486 1406 944 952 938 773 769 937 933 921 864 848 805 436 155 152 138 93 113 147 154 157 115 71 119 68 56 1014 1494 1722 1782 1795 1786 1750 1718 1707 1691 1701 1699 1690 1680 1666 1683 1809 1878 1933 1938 1381 1388 1199 1135 715 707 646 535 528 140 82 88 62 67 76 85 63 164 175 299 333 398 498 497 464 506 586 569 647 658 635 608 640 578 566 696 702 673 852 899 1002 1070 1095 716 720 585 384 366 449 468 558 568 793 785 714 631 620 625 849 1074 1505 1819 1817 1810 1483 676 606 587 786 854 1007 1586 1599 1674 1682 1773 1778 1282 1268 1191 879 796 814 681 504 363 264 226 81 43 33 19 22 106 129 146 101 80 118 116 102 120 127 195 272 550 576 1063 1430 1749 1772 1780 1796 1803 1846 1881 1901 1922 1855 1837 1843 1884 1892 1869 1863 1885 1880 1853 1824 1822 1836 1867 1850 1883 1925 1928 1916 762 760 689 693 827 932 1118 1550 1848 1890 1891 1899 1889 1859 1426 1410 1338 1317 1284 1213 1217 1102 994 987 940 1172 1361 1433 1498 1545 1549 1564 1560 1572 1588 1596 1628 1626 1552 1541 1535 1245 982 898 906 910 1278 1355 1347 1293 1298 1314 1226 992 151 149 117 79 139 309 469 488 573 711 1034 1530 1574 1587 1638 1637 1608 1613 1696 1845 1898 1939 1944 1907 1908 1840 1812 1706 1698 1693 1709 1527 1382 1267 1149 1146 939 914 917 894 644 583 594 717 738 954 998 1384 1396 1831 1839 1915 1936 1946 1934 1929 1909 961 945 962 967 965 600 604 607 432 440 545 556 588 581 538 544 543 490 395 5 1 0 15 171 173 16 6 23 21 25 17 36 55 98 95 87 103 189 1363 1431 1565 1566 1562 1548 1370 1411 1405 1469 1536 1649 1662 1660 1583 1570 1216 1228 822 835 804 610 603 959 1027 1194 1823 1841 1834 1797 1779 1767 803 755 638 766 855 862 923 1597 1609 1661 1716 1781 1910 1959 1970 1967 1964 1957 1296 1297 1285 1287 1107 817 390 379 364 372 375 331 415 
