uy734.tsp
avg cost: 441106
avg steps: 728.497
best: 378198

452 586 582 562 447 189 45 15 24 66 62 44 57 298 355 393 408 272 202 185 158 107 168 169 170 49 43 52 53 108 191 269 268 264 530 515 495 429 436 474 559 555 570 576 540 199 154 129 96 58 68 114 85 132 280 295 228 80 79 35 17 21 76 78 164 204 273 290 274 253 248 284 301 296 281 307 536 534 220 277 292 326 398 428 388 289 285 259 322 704 695 696 686 708 717 731 724 716 706 673 385 422 368 449 433 328 139 133 97 94 233 305 572 591 635 723 733 523 470 354 276 251 122 99 120 146 283 377 369 370 311 330 457 532 604 654 577 590 632 611 619 648 656 681 705 676 688 679 661 653 626 549 560 566 601 497 513 491 193 140 128 77 167 131 159 243 267 329 335 266 50 42 39 33 65 262 316 261 82 59 64 147 197 257 360 395 406 396 144 237 224 231 254 217 173 137 153 218 210 201 225 240 390 366 348 365 444 568 505 490 467 466 414 439 596 685 701 702 687 554 537 551 603 618 623 219 150 136 160 162 156 141 81 101 184 157 171 634 638 666 607 593 564 552 451 232 238 155 8 7 4 9 37 166 432 524 694 690 578 535 543 526 589 620 664 670 662 477 434 399 323 320 327 475 521 519 514 482 442 371 418 386 485 528 597 683 655 669 645 630 643 684 718 507 492 469 478 484 499 503 493 489 525 511 622 621 579 574 437 407 338 359 520 509 533 588 584 471 462 246 256 627 675 652 581 40 0 5 10 20 41 48 89 69 293 342 344 416 376 382 242 226 223 110 95 102 98 152 138 118 30 28 12 11 19 86 127 187 213 306 419 427 384 392 387 402 546 692 710 721 646 647 504 501 486 567 595 476 456 222 216 151 143 135 115 148 165 174 198 234 250 299 642 615 585 606 587 430 227 209 203 206 294 383 356 374 255 241 181 90 84 83 92 378 448 472 518 517 613 629 616 599 600 547 563 522 508 500 480 512 516 538 550 651 565 544 545 548 539 481 443 468 372 303 263 229 142 55 71 72 73 235 271 279 300 304 367 415 409 417 252 161 125 309 358 405 404 440 375 282 192 215 205 172 182 331 380 479 583 610 391 175 106 63 134 188 275 413 412 431 650 703 726 728 720 727 729 730 715 713 709 680 176 163 221 302 278 308 318 317 357 531 677 671 350 343 353 349 682 693 450 352 312 212 183 180 126 208 214 211 236 291 244 260 177 111 60 51 61 54 91 617 631 612 575 558 453 411 425 454 459 401 324 325 239 247 288 438 458 488 446 445 333 297 315 341 340 487 502 510 424 381 403 379 362 346 286 258 145 149 74 75 67 104 605 608 644 674 691 711 722 483 345 265 194 123 119 56 47 29 34 117 109 400 423 394 186 195 179 190 207 569 573 640 602 553 633 594 592 494 460 463 200 100 93 105 121 426 455 465 397 361 314 249 196 18 16 14 22 23 25 27 38 124 178 130 70 13 6 3 1 2 26 46 571 498 363 334 116 113 87 103 321 347 461 464 561 580 609 598 614 658 663 649 641 636 639 665 700 712 725 732 714 657 628 496 421 435 441 529 697 699 719 707 689 698 668 672 659 637 624 625 667 660 678 527 473 319 310 287 332 506 541 556 557 542 420 313 270 245 112 88 31 32 36 230 339 389 410 364 351 337 336 373 
