qa194.tsp
avg cost: 30810.7
avg steps: 156.124
best: 25255

30 31 49 111 119 127 122 61 58 22 108 112 86 75 32 99 107 114 120 109 73 77 6 12 15 7 3 1 2 48 47 51 55 42 41 52 26 21 38 37 57 56 67 72 66 53 54 40 18 14 11 33 63 27 44 50 46 60 17 20 23 25 28 65 106 116 134 130 121 81 79 115 142 165 159 70 24 10 13 98 100 88 103 129 162 171 178 173 172 156 153 149 93 85 97 188 190 177 179 184 191 187 183 151 117 104 95 74 71 16 90 176 180 192 186 185 189 193 168 124 113 101 102 118 137 145 141 138 152 146 157 164 174 181 182 150 29 8 4 9 68 105 160 175 163 136 125 89 19 0 5 35 62 64 84 110 126 131 133 139 144 155 148 143 140 135 132 123 45 43 34 39 59 69 76 87 91 92 96 128 147 170 169 167 166 161 158 154 94 82 80 78 83 36 
