Best cost: 214432
Time: 6153.98
Route:
4613 4564 4509 4502 4459 4393 4304 4354 4370 4392 4291 4265 4189 4126 4104 4077 4011 3988 3958 3912 3928 3938 4030 4032 4111 4202 4155 4212 4296 4314 4381 4362 4290 4254 4173 4117 4149 4193 4211 4253 4232 4339 4384 4408 4411 4344 4313 4373 4454 4467 4514 4566 4666 4800 4799 4858 4773 4664 4635 4583 4733 4798 4939 4946 5078 5108 5174 5141 5176 5216 5266 5307 5358 5333 5302 5458 5484 5525 5528 5534 5569 5646 5699 5756 5737 5676 5606 5607 5531 5477 5410 5417 5464 5502 5530 5554 5596 5624 5702 5722 5723 5735 5645 5671 5739 5764 5641 5620 5696 5738 5779 5801 5805 5782 5674 5703 5718 5760 5815 5842 5880 5885 5843 5823 5806 5742 5743 5704 5677 5653 5678 5724 5744 5783 5870 5889 5910 5947 6009 6100 6036 5973 5949 5948 5871 5824 5825 5872 5950 6010 5930 5911 5873 5784 5745 5746 5725 5705 5706 5680 5654 5655 5609 5558 5514 5610 5657 5683 5707 5682 5656 5632 5681 5747 5826 5912 5891 5874 5913 5892 5845 5844 5827 5765 5658 5579 5580 5559 5611 5684 5708 5709 5766 5786 5749 5748 5785 5807 5828 5808 5829 5894 5875 5893 5933 6039 5974 5975 6067 6139 6068 6105 6228 6259 6181 6245 6352 6529 6462 6540 6663 6711 6794 6823 6839 6896 6861 6674 6726 6756 6686 6577 6523 6468 6406 6417 6475 6318 6209 6175 6215 6266 6304 6356 6429 6439 6478 6538 6619 6602 6645 6673 6728 6705 6661 6574 6514 6444 6405 6362 6213 6251 6308 6378 6437 6459 6573 6625 6651 6689 6666 6714 6727 6853 6928 6990 6974 6999 7014 7024 7056 7114 7144 7193 7108 7153 7257 7218 7212 7226 7198 7169 7140 7093 7054 7128 7156 7105 7070 7042 6982 6956 6933 6895 6831 6780 6822 6954 6977 7045 7107 7136 7161 7167 7209 7185 7043 7036 7100 7132 7101 7116 7066 7148 7176 7250 7228 7229 7141 7033 6992 6897 6927 6824 6843 6752 6708 6744 6799 6772 6866 6905 6876 6791 6733 6731 6827 6950 7021 7050 7031 7091 7184 7145 7221 7313 7325 7332 7380 7326 7360 7407 7434 7421 7418 7381 7374 7243 7245 7120 7113 7044 7094 7068 7110 7149 7187 7164 7151 7088 7072 7053 7015 7047 7071 7055 6976 6915 6750 6796 6854 6922 6951 6975 6958 6923 6858 6788 6730 6615 6546 6492 6588 6626 6591 6712 6797 6834 6746 6764 6706 6650 6654 6620 6571 6610 6551 6476 6415 6445 6391 6339 6261 6229 6172 6248 6293 6353 6303 6348 6409 6450 6513 6244 6194 6040 6107 6071 6041 6015 6108 6218 6208 6230 6200 6140 6072 6042 5978 5955 5984 6030 6090 6093 6115 6124 6142 6186 6193 6280 6359 6368 6431 6524 6501 6564 6477 6455 6329 6397 6343 6227 6195 6192 6267 6332 6411 6448 6592 6646 6559 6503 6355 6336 6290 6354 6238 6167 6165 6250 6270 6296 6317 6366 6312 6433 6585 6558 6516 6469 6578 6690 6710 6842 6851 6789 6785 6768 6918 6870 6868 6795 6713 6676 6622 6575 6517 6484 6552 6504 6438 6399 6422 6486 6621 6542 6576 6652 6695 6670 6804 6852 6812 6786 6816 6909 6952 7017 7011 6970 6888 6902 6899 6745 6864 6898 6935 7003 7058 7005 7030 7049 7076 7038 6995 6979 6949 6847 6773 6660 6696 6723 6753 6846 6924 6948 7000 7039 7159 7121 7129 7194 7206 7285 7244 7214 7177 7134 7086 7025 7075 7186 7238 7252 7297 7312 7318 7341 7366 7373 7370 7351 7368 7348 7299 7232 7190 7234 7255 7322 7278 7304 7265 7256 7224 7262 7222 7283 7300 7323 7335 7293 7246 7254 7308 7290 7223 7247 7310 7264 7192 7197 7314 7333 7279 7239 7259 7216 7180 7200 7282 7317 7324 7398 7424 7451 7439 7446 7448 7423 7408 7440 7452 7437 7460 7466 7473 7462 7470 7464 7469 7461 7479 7488 7492 7499 7472 7482 7485 7487 7495 7500 7504 7508 7491 7498 7505 7507 7511 7518 7515 7514 7512 7516 7557 7561 7563 7577 7585 7575 7567 7582 7576 7574 7568 7588 7599 7578 7581 7589 7596 7586 7592 7611 7620 7639 7650 7635 7669 7671 7661 7634 7627 7656 7666 7668 7675 7698 7672 7679 7694 7695 7687 7662 7625 7613 7604 7622 7629 7677 7683 7665 7660 7664 7649 7633 7587 7597 7593 7609 7583 7598 7617 7631 7619 7608 7594 7565 7571 7545 7540 7538 7534 7531 7528 7547 7549 7558 7556 7562 7564 7570 7560 7566 7572 7569 7584 7601 7610 7580 7600 7615 7624 7628 7657 7676 7663 7638 7637 7644 7682 7678 7667 7652 7653 7685 7743 7757 7764 7779 7771 7785 7799 7807 7829 7833 7819 7810 7844 7827 7794 7828 7842 7890 7955 7982 7987 7980 7965 7964 7938 7923 7933 7886 7846 7872 7817 7831 7804 7788 7791 7820 7823 7789 7792 7760 7727 7704 7735 7750 7730 7740 7776 7795 7775 7766 7765 7739 7680 7670 7674 7646 7651 7642 7616 7606 7626 7640 7647 7623 7614 7603 7591 7612 7636 7648 7673 7645 7643 7655 7686 7692 7681 7659 7641 7632 7654 7658 7689 7697 7703 7710 7724 7737 7772 7797 7796 7783 7759 7745 7734 7700 7696 7690 7693 7708 7716 7719 7715 7722 7706 7709 7728 7774 7798 7800 7852 7867 7896 7921 7926 7936 7934 7939 7972 7956 7924 7905 7898 7881 7848 7851 7892 7915 7947 7961 8000 8019 8012 8026 8034 8047 8078 8074 8201 8193 8082 8053 8046 8048 8045 8035 8032 8018 8020 8029 8040 8051 8077 8067 8073 8066 8086 8058 8076 8084 8088 8096 8106 8146 8127 8140 8118 8112 8114 8103 8072 8056 8044 8055 8030 8031 8039 8054 8059 8071 8070 8093 8098 8115 8131 8141 8138 8151 8164 8158 8177 8172 8153 8126 8125 8134 8178 8174 8137 8130 8111 8105 8095 8091 8057 8068 8081 8033 8037 8065 8099 8120 8128 8123 8121 8124 8145 8163 8183 8196 8206 8208 8191 8161 8144 8129 8113 8100 8097 8052 8064 8079 8043 8028 8007 8002 7975 7968 7953 7940 7928 7912 7922 7931 7944 7948 7941 7946 7954 7963 7977 7992 7999 8006 8009 8015 8024 7993 7976 8003 8027 8041 8063 8050 8049 8060 8083 8094 8104 8119 8132 8101 8090 8102 8110 8139 8150 8143 8133 8147 8156 8175 8190 8203 8215 8199 8211 8166 8182 8200 8195 8202 8210 8218 8179 8165 8157 8136 8155 8173 8181 8194 8220 8213 8223 8209 8214 8222 8226 8227 8229 8246 8245 8242 8243 8244 8240 8241 8239 8237 8236 8230 8232 8231 8225 8212 8216 8221 8219 8197 8187 8207 8217 8234 8235 8238 8233 8228 8224 8198 8189 8186 8171 8170 8162 8169 8180 8205 8185 8204 8192 8184 8168 8159 8142 8152 8149 8122 8107 8089 8117 8108 8080 8061 8075 8092 8062 8042 8038 8069 8116 8135 8154 8176 8188 8167 8160 8148 8109 8087 8085 8036 8025 8021 8005 8017 8022 8016 7991 8004 7997 8001 7986 7988 7978 7967 7959 7942 7927 7917 7909 7925 7911 7893 7870 7891 7906 7910 7902 7903 7865 7863 7853 7836 7837 7815 7839 7840 7843 7826 7814 7802 7805 7787 7777 7770 7742 7733 7720 7752 7744 7725 7712 7711 7707 7729 7747 7758 7731 7748 7751 7761 7773 7784 7781 7790 7806 7813 7803 7808 7782 7801 7832 7835 7849 7858 7857 7875 7878 7885 7904 7907 7929 7937 7918 7913 7887 7876 7864 7855 7871 7874 7888 7894 7899 7882 7897 7889 7879 7883 7860 7854 7856 7845 7838 7834 7816 7811 7821 7818 7822 7793 7812 7824 7830 7841 7861 7884 7895 7901 7916 7935 7960 7966 7984 7981 7994 7998 7971 7958 7962 7973 7990 8011 8013 8014 8010 8008 8023 7995 7996 7989 7979 7974 7952 7945 7949 7943 7920 7951 7957 7969 7985 7983 7970 7950 7932 7930 7908 7919 7914 7869 7862 7868 7880 7900 7877 7873 7866 7859 7850 7847 7825 7809 7786 7767 7754 7746 7755 7738 7756 7768 7778 7769 7749 7723 7702 7714 7684 7718 7705 7688 7691 7701 7713 7732 7741 7763 7780 7762 7753 7726 7736 7721 7717 7699 7579 7554 7555 7539 7544 7550 7546 7543 7537 7536 7552 7541 7607 7618 7605 7630 7621 7602 7595 7590 7573 7559 7548 7553 7551 7542 7535 7532 7533 7526 7522 7523 7525 7520 7510 7503 7502 7519 7524 7527 7530 7529 7521 7517 7513 7509 7506 7501 7494 7490 7477 7475 7471 7430 7432 7450 7456 7443 7411 7387 7371 7343 7288 7207 7217 7266 7309 7352 7419 7428 7433 7436 7441 7404 7362 7298 7302 7354 7372 7367 7422 7449 7468 7474 7484 7497 7496 7481 7476 7457 7442 7383 7347 7334 7365 7338 7357 7389 7378 7337 7274 7294 7263 7183 7155 7131 7119 7080 7029 7060 7126 6998 6894 6887 6850 6863 6833 6821 6805 6751 6643 6691 6755 6762 6782 6871 6860 6969 7035 7002 6893 6875 6865 6811 6779 6724 6624 6532 6453 6414 6363 6297 6345 6249 6191 6178 6104 6243 6310 6364 6496 6582 6633 6510 6404 6521 6528 6560 6480 6569 6641 6743 6680 6644 6533 6506 6442 6371 6338 6370 6425 6331 6256 6176 6214 6240 6291 6272 6254 6334 6231 6138 6164 6137 6066 6013 5953 5952 6012 6065 6103 6190 6136 6038 6037 6011 5951 5932 5890 5931 6063 6102 6064 6135 6203 6268 6300 6458 6572 6547 6474 6527 6603 6717 6801 6841 6900 6916 6932 6803 6784 6737 6687 6736 6701 6649 6599 6518 6522 6584 6479 6452 6313 6202 6211 6232 6278 6421 6500 6587 6642 6688 6739 6793 6829 6884 6945 7027 7090 7059 7008 7026 7041 7154 7130 7125 7074 6944 6903 6855 6781 6892 6771 6735 6699 6693 6658 6721 6766 6798 6869 6925 6777 6669 6637 6597 6537 6472 6502 6473 6367 6219 6101 6264 6174 6325 6173 6241 6207 6134 6133 6161 6265 6315 6350 6388 6412 6357 6351 6257 6361 6201 6242 6285 6349 6387 6507 6570 6531 6568 6536 6598 6614 6618 6657 6698 6790 6787 6749 6820 6832 6913 7001 6920 6830 6817 6742 6653 6665 6623 6729 6819 6973 7009 6880 6814 6765 6732 6813 6878 6921 6912 6987 7092 7115 7179 6981 6978 7004 6964 6919 6845 6874 6807 6704 6684 6770 6828 6883 6911 6941 6929 6891 6836 6703 6664 6616 6544 6464 6434 6337 6309 6223 6171 6237 6306 6443 6557 6630 6595 6563 6488 6432 6374 6324 6273 6252 6168 6099 6035 5929 5963 6004 6082 6132 6154 6189 6307 6365 6481 6553 6601 6640 6741 6709 6632 6567 6700 6648 6738 6774 6692 6748 6800 6914 6930 6890 6926 6910 6953 6997 6986 7010 7062 7103 7143 7188 7123 7096 7077 7142 7191 7205 7150 7135 7168 7122 7057 7064 7166 7204 7240 7320 7336 7321 7345 7303 7281 7237 7359 7339 7375 7406 7377 7402 7429 7438 7454 7483 7493 7486 7478 7467 7455 7453 7445 7427 7386 7349 7292 7236 7249 7269 7268 7363 7399 7426 7447 7458 7463 7480 7489 7459 7465 7444 7397 7425 7431 7414 7382 7369 7353 7316 7342 7328 7306 7327 7275 7258 7273 7291 7267 7261 7241 7202 7182 7220 7163 7085 7095 7111 7067 7127 7079 7020 6968 6988 6984 7016 7012 6939 6908 6806 6835 6937 6963 6994 7034 7063 7102 7138 7073 7104 7158 7195 7215 7152 7118 7052 6996 7040 7089 6967 6989 7019 6947 6907 6882 6889 6849 6783 6809 6754 6838 6942 7022 6985 6938 6966 6993 6962 6904 6734 6678 6647 6629 6589 6656 6716 6679 6581 6485 6493 6556 6605 6495 6543 6499 6423 6347 6305 6373 6342 6382 6408 6323 6286 6097 6098 6155 6152 6221 6156 6060 6034 5972 5960 5938 5903 5909 5860 5795 5819 5864 5818 5908 5921 5941 5971 5904 5944 5946 5926 6020 6026 5994 6033 6089 6131 6212 6302 6246 6185 6253 6147 6183 6289 6316 6403 6418 6470 6467 6381 6386 6447 6410 6314 6322 6198 6146 6050 6058 6077 5983 5923 5902 5841 5838 5863 5834 5797 5759 5758 5800 5814 5862 5867 5869 5888 5943 5962 5996 6086 6144 6170 6271 6321 6377 6295 6205 6145 6120 6182 6275 6263 6206 6197 6032 6092 6150 6188 6220 6282 6222 6159 6284 6402 6512 6539 6430 6471 6520 6497 6606 6662 6612 6672 6725 6776 6702 6636 6541 6440 6369 6390 6451 6505 6519 6436 6360 6401 6457 6565 6555 6628 6549 6463 6550 6611 6671 6683 6545 6420 6330 6274 6153 6125 6400 6509 6594 6535 6498 6609 6534 6593 6635 6681 6859 6840 6761 6718 6767 6722 6685 6667 6586 6554 6424 6393 6454 6491 6466 6441 6419 6380 6319 6333 6320 6395 6379 6482 6580 6608 6579 6398 6494 6385 6277 6187 6157 6130 6122 6078 6051 6008 6002 5967 5945 5961 5997 6047 6006 5970 5965 6001 6016 6021 6000 5990 5993 5966 5968 5964 5939 5942 5940 5924 5928 5922 5919 5907 5882 5887 5868 5839 5836 5837 5821 5793 5762 5741 5778 5803 5817 5799 5781 5777 5763 5761 5734 5720 5719 5721 5740 5816 5820 5822 5840 5859 5866 5883 5881 5861 5884 5835 5780 5757 5736 5672 5644 5603 5602 5642 5673 5701 5697 5639 5622 5598 5619 5621 5626 5695 5700 5717 5698 5670 5668 5643 5648 5675 5625 5568 5589 5591 5533 5532 5513 5551 5593 5597 5552 5527 5500 5504 5479 5509 5463 5318 5296 5197 5238 5345 5265 5308 5215 5181 5126 5055 5068 5018 4958 4949 4917 4963 4888 4882 4788 4723 4596 4491 4474 4363 4289 4327 4351 4369 4420 4458 4464 4348 4285 4228 4255 4244 4277 4148 4113 4092 3966 4006 3957 3858 4132 3961 3921 3889 3823 3775 3746 3753 3682 3659 3608 3578 3592 3511 3510 3554 3666 3643 3651 3748 3782 3875 3903 3953 3878 3810 3774 3854 3848 3884 3913 3998 3954 4008 4059 4171 4332 4300 4355 4433 4445 4471 4410 4401 4424 4391 4453 4425 4440 4559 4574 4697 4743 4762 4822 4793 4789 4720 4702 4748 4797 4841 4895 4910 4848 4738 4673 4610 4529 4565 4568 4667 4722 4792 4887 4761 4732 4819 4909 4947 5008 5019 5037 4985 4974 5003 4942 4914 4874 4905 5004 4973 4849 4844 4961 5005 5065 5147 5133 5202 5285 5245 5363 5423 5465 5459 5422 5440 5446 5462 5443 5414 5374 5295 5386 5434 5466 5480 5553 5571 5595 5601 5627 5576 5548 5510 5512 5505 5503 5483 5457 5444 5421 5416 5437 5418 5342 5384 5349 5350 5284 5255 5164 5073 5143 5107 5212 5240 5211 5135 5254 5300 5251 5235 5131 4778 4842 4826 4784 4753 4696 4679 4630 4672 4546 4466 4477 4485 4431 4407 4343 4329 4274 4236 4166 4194 4125 4080 4007 3997 4010 4054 4122 4206 4288 4246 4199 4165 4147 4096 4023 3989 3937 3942 3907 3874 3795 3784 3770 3765 3732 3672 3618 3550 3624 3563 3534 3494 3447 3410 3345 3311 3234 3253 3275 3358 3411 3443 3481 3497 3627 3654 3681 3689 3639 3540 3591 3525 3508 3489 3437 3429 3375 3362 3318 3272 3219 3104 3057 3005 3018 3035 3068 3124 3100 3144 3125 3064 3039 2962 2959 3003 2875 2843 2863 2830 2751 2783 2771 2749 2678 2563 2539 2580 2613 2618 2633 2572 2513 2453 2419 2394 2290 2239 2224 2348 2370 2395 2436 2474 2522 2549 2594 2532 2457 2514 2591 2677 2765 2702 2605 2595 2556 2528 2478 2479 2451 2500 2533 2557 2570 2598 2627 2658 2637 2667 2719 2763 2736 2794 2828 2940 2950 3008 3013 3034 3033 3017 2926 2918 2867 2823 2818 2752 2744 2706 2623 2657 2696 2698 2796 2815 2804 2839 2862 2954 3042 3029 2956 2937 2946 2977 3066 3076 3075 3103 3157 3198 3250 3220 3274 3349 3320 3284 3408 3459 3471 3485 3547 3576 3661 3663 3607 3664 3710 3463 3370 3354 3357 3286 3231 3178 3132 3160 3052 3058 3049 3082 3098 3115 3136 3174 3270 3321 3398 3449 3492 3524 3596 3541 3505 3467 3441 3384 3301 3255 3203 3112 3107 3083 3047 3093 3102 3128 3175 3227 3214 3209 3245 3202 3153 3204 3146 3092 3045 3032 3024 2967 2912 2898 2873 2876 2854 2811 2753 2793 2733 2780 2846 2827 2776 2562 2515 2512 2551 2587 2559 2536 2492 2386 2341 2444 2464 2426 2375 2388 2323 2231 2104 2067 2038 1944 1877 1845 1820 1799 1769 1727 1688 1679 1682 1707 1768 1805 1847 1855 1825 1850 1849 1841 1890 1927 1978 1941 2004 2085 2145 2101 2090 2118 2190 2214 2245 2278 2311 2217 2234 2271 2335 2377 2349 2350 2421 2465 2608 2604 2529 2505 2511 2506 2390 2384 2358 2406 2433 2378 2325 2295 2213 2310 2292 2194 2263 2275 2309 2360 2372 2347 2359 2332 2291 2215 2165 2083 2135 2159 2206 2228 2189 2218 2227 2176 2070 2017 2075 2079 2098 2026 1926 1987 1904 1867 1838 1813 1741 1791 1729 1703 1611 1567 1600 1624 1553 1551 1413 1387 1426 1440 1524 1548 1637 1646 1632 1568 1526 1432 1546 1563 1647 1664 1667 1655 1763 1782 1757 1751 1606 1527 1506 1481 1467 1408 1360 1427 1492 1556 1628 1636 1570 1555 1604 1676 1752 1743 1720 1852 1879 1875 1913 1954 1959 1934 1936 1998 2033 2060 2076 2061 2112 2054 2001 1985 1979 1939 1905 1895 1839 1700 1656 1549 1658 1744 1725 1710 1659 1582 1512 1420 1454 1476 1523 1539 1623 1723 1735 1626 1620 1652 1587 1648 1594 1534 1515 1487 1490 1450 1429 1409 1353 1365 1316 1180 1176 1268 1200 1226 1245 1295 1352 1361 1322 1372 1442 1455 1511 1482 1516 1558 1595 1583 1598 1622 1698 1683 1701 1762 1828 1901 1880 1861 1899 1928 2019 2095 2178 2260 2314 2300 2363 2391 2402 2467 2493 2466 2555 2650 2682 2718 2792 2842 2838 2814 2797 2859 2890 2913 2927 2973 2924 2949 2960 2934 2951 2992 3023 3007 3060 3191 3180 3232 3242 3244 3302 3278 3259 3313 3340 3412 3401 3380 3300 3417 3536 3512 3599 3585 3555 3509 3546 3519 3482 3434 3403 3469 3426 3399 3341 3446 3462 3513 3594 3650 3653 3676 3701 3740 3735 3705 3674 3612 3564 3621 3656 3649 3593 3573 3610 3637 3655 3713 3695 3684 3749 3718 3667 3600 3566 3644 3694 3720 3771 3820 3841 3898 3905 3952 3798 3700 3630 3662 3752 3767 3897 4002 3980 3985 3984 4026 4029 4102 4084 4049 4034 4067 4037 3999 3979 4014 3879 3817 3787 3796 3756 3671 3758 3828 3855 3883 3836 3856 3916 3943 3945 3977 4015 3934 3962 3880 3842 3800 3780 3788 3755 3711 3646 3712 3736 3808 3845 3881 3940 3956 3922 3876 3821 3815 3714 3657 3579 3538 3464 3438 3436 3390 3356 3378 3432 3442 3391 3342 3319 3233 3271 3303 3315 3236 3333 3330 3249 3225 3217 3193 3137 3184 3261 3268 3276 3298 3281 3291 3317 3327 3293 3241 3229 3310 3339 3368 3365 3453 3389 3421 3415 3506 3454 3427 3392 3373 3346 3316 3256 3230 3248 3336 3337 3376 3413 3397 3425 3460 3523 3619 3640 3669 3660 3652 3605 3570 3551 3574 3625 3702 3739 3785 3797 3738 3852 3849 3871 3853 3811 3778 3825 3857 3917 3968 3976 4039 4064 4090 4127 4163 4168 4245 4326 4324 4342 4386 4335 4310 4269 4215 4162 4124 4140 4209 4280 4336 4490 4439 4379 4322 4394 4527 4577 4669 4716 4746 4682 4686 4636 4550 4585 4628 4714 4751 4845 4764 4729 4629 4598 4508 4434 4435 4455 4366 4412 4430 4404 4287 4258 4250 4220 4183 4222 4195 4048 4022 4075 4095 4178 4115 4040 3965 3910 3870 3769 3824 3829 3834 3781 3737 3803 3890 3931 3964 3991 4013 3972 3930 3887 3908 3873 3802 3719 3733 3697 3722 3687 3569 3617 3645 3614 3580 3677 3685 3623 3586 3498 3452 3493 3528 3501 3444 3406 3374 3305 3243 3260 3206 3188 3192 3168 3135 3080 3069 2958 2941 2939 2878 2961 2980 3105 3095 3162 3187 3161 3158 3171 3177 3151 3108 3099 3074 2966 2997 2920 2922 2900 2816 2844 2766 2735 2732 2881 2889 2899 2968 2998 3041 3037 3015 2955 2979 3026 3053 3011 3019 3048 3025 2930 2887 2885 2902 2850 2782 2800 2730 2662 2612 2630 2600 2584 2560 2516 2523 2483 2485 2524 2561 2602 2651 2643 2615 2599 2621 2652 2672 2693 2758 2731 2683 2679 2648 2632 2582 2540 2537 2601 2646 2688 2772 2777 2852 2879 2931 3010 3043 3016 2972 2905 2853 2895 2809 2791 2680 2668 2745 2713 2690 2673 2659 2564 2501 2585 2663 2711 2703 2806 2835 2819 2798 2916 2969 2991 3056 3070 2963 2906 2869 2872 2888 2778 2619 2508 2414 2382 2285 2324 2389 2462 2385 2286 2259 2256 2240 2265 2293 2246 2211 2143 2100 2021 2041 2045 2155 2093 2164 2116 2114 2154 2182 2209 2237 2277 2281 2302 2355 2379 2437 2401 2337 2317 2258 2219 2186 2192 2208 2236 2126 2102 2073 1932 1911 1903 1886 1780 1776 1795 1898 1851 1956 2009 2025 2071 2115 2119 2120 2087 2078 2141 2166 2232 2269 2301 2343 2410 2472 2490 2517 2541 2589 2611 2610 2685 2738 2641 2495 2477 2438 2408 2455 2387 2352 2373 2403 2480 2422 2313 2331 2254 2264 2250 2191 2187 2117 2111 1909 1786 1842 1827 1878 1948 1955 1896 1881 1834 1711 1747 1753 1754 1680 1663 1742 1784 1864 1882 1960 1980 2042 1977 1995 2020 2048 2072 2140 2173 2193 2255 2225 2207 2163 2108 2130 2181 2202 2096 2031 1917 1942 1906 1843 1835 1857 1814 1810 1789 1749 1686 1705 1635 1610 1544 1493 1441 1443 1410 1303 1211 1219 1281 1296 1292 1377 1517 1537 1557 1586 1618 1561 1489 1422 1349 1220 1206 1324 1380 1392 1465 1621 1651 1552 1449 1373 1354 1320 1278 1242 1221 1215 1327 1367 1370 1284 1271 1291 1307 1230 1173 1164 1124 1143 1231 1285 1343 1286 1315 1355 1444 1480 1479 1483 1423 1395 1541 1498 1499 1538 1615 1631 1704 1750 1773 1897 1916 1984 2016 2036 2081 2049 1993 1982 2040 2035 2034 1964 1949 1812 1738 1787 1807 1777 1840 1793 1759 1421 1439 1448 1265 1217 1253 1181 1118 1043 1020 996 1011 1060 1075 1122 1163 1101 1052 958 951 970 969 910 889 893 876 849 848 880 938 939 997 953 978 919 883 805 771 744 755 835 877 878 887 806 784 770 799 861 870 906 959 957 1059 1032 1081 1115 1096 1109 1035 1013 1062 1130 1167 1243 1201 1250 1330 1317 1299 1272 1238 1318 1397 1381 1411 1396 1469 1502 1678 1715 1681 1721 1761 1802 1811 1873 1937 1983 1994 1975 1910 1885 1824 1860 1918 1950 2050 2132 2147 2183 2241 2305 2270 2371 2427 2481 2445 2365 2222 2150 2242 2287 2412 2440 2456 2535 2558 2592 2649 2625 2544 2546 2531 2578 2631 2660 2687 2622 2638 2710 2755 2832 2866 2739 2757 2773 2841 2883 2970 2988 3021 3046 3091 3054 3097 3120 3122 3127 3205 3226 3194 3200 3215 3199 3254 3207 3223 3338 3383 3423 3294 3262 3213 3113 3084 3012 2882 2909 2894 2929 2849 2870 2903 2936 2943 2990 2942 2868 2851 2947 3040 3038 2978 2964 2923 2932 2848 2834 2759 2825 2820 2908 2921 2976 2989 2919 2891 2893 2884 2993 2952 2860 2833 2754 2700 2616 2635 2571 2575 2590 2548 2454 2443 2554 2417 2380 2345 2392 2484 2596 2654 2701 2720 2760 2768 2795 2694 2727 2764 2821 2802 2803 2789 2762 2726 2666 2634 2525 2534 2486 2429 2326 2226 2170 2134 2055 2127 2160 1961 1876 1865 1868 1953 1990 1958 2051 2080 2175 2274 2297 2330 2203 2106 2008 1988 1930 1893 2002 2121 2303 2321 2344 2431 2473 2617 2692 2642 2586 2624 2722 2784 2801 2874 2915 2965 2994 3020 3096 3179 3123 3141 3106 3086 3059 3087 3118 3133 3116 3061 3055 3077 3130 3173 3210 3240 3208 3154 3088 3129 3201 3111 3078 3114 3063 3031 3079 3257 3287 3344 3393 3484 3516 3495 3620 3558 3609 3747 3768 3678 3533 3394 3363 3312 3297 3348 3418 3439 3521 3499 3371 3461 3535 3604 3636 3696 3708 3827 3927 4053 4058 4071 3967 4057 4180 4210 4308 4338 4352 4395 4436 4413 4449 4432 4368 4361 4402 4479 4549 4604 4552 4504 4512 4505 4473 4415 4367 4419 4389 4350 4218 4281 4270 4251 4229 4203 4150 4106 4146 4107 4129 4033 3996 3885 3866 3939 3946 3812 3772 3647 3693 3723 3960 4025 4061 4043 4019 4024 4069 3990 3935 3959 4027 3992 4018 4087 4141 4091 4045 3995 3860 3895 3786 3727 3919 3869 3826 3789 3764 3703 3567 3458 3532 3435 3359 3292 3288 3331 3326 3414 3416 3598 3777 3822 3865 3963 4017 4072 4105 4047 4266 4224 4278 4118 4139 4213 4297 4247 4320 4353 4418 4544 4591 4524 4486 4437 4442 4478 4530 4535 4562 4587 4665 4655 4663 4742 4776 4871 4936 4993 5024 5088 5027 4984 4880 4872 4877 4968 5050 5064 5093 5142 5224 5289 5329 5378 5304 5274 5184 5236 5389 5408 5409 5365 5287 5183 5233 5279 5337 5375 5327 5288 5218 5060 5137 5127 5054 4960 4969 4904 4865 4851 4803 4786 4717 4766 4560 4647 4794 4919 4979 4846 4879 4737 4693 4710 4602 4495 4450 4416 4365 4316 4257 4279 4262 4142 4151 4144 4097 4085 4182 4200 4301 4359 4371 4423 4520 4588 4656 4641 4787 4884 4825 4744 4683 4621 4592 4484 4421 4463 4518 4542 4558 4487 4452 4400 4328 4264 4248 4186 4101 4121 4133 4108 4031 4000 3950 3886 3867 3872 3888 3806 3743 3686 3611 3589 3562 3544 3420 3350 3335 3143 3072 2982 2981 2880 2864 2787 2704 2629 2607 2626 2597 2573 2640 2670 2734 2728 2699 2636 2639 2603 2576 2475 2446 2507 2552 2695 2664 2691 2747 2775 2786 2877 2928 2836 2822 2769 2737 2708 2681 2644 2545 2579 2441 2304 2283 2339 2333 2229 2296 2356 2420 2458 2518 2526 2568 2547 2502 2461 2468 2496 2488 2452 2411 2318 2251 2272 2376 2423 2393 2312 2252 2212 2149 2125 2005 1981 2006 1943 2037 2057 2136 2069 2137 2156 2188 2216 2109 2088 2074 2198 2316 2320 2362 2374 2381 2434 2442 2398 2425 2491 2566 2647 2489 2509 2503 2459 2416 2424 2405 2342 2319 2248 2174 2131 2099 2003 1991 1962 1862 1869 1947 1938 1976 2029 2052 2056 2077 2082 2122 2138 2161 2221 2230 2233 2267 2184 1965 1945 1957 1925 1889 1823 1844 1728 1643 1585 1650 1579 1543 1518 1503 1466 1398 1298 1195 1166 1187 1177 1186 1097 1082 1073 1037 960 942 896 885 852 822 785 827 862 897 968 999 1036 1045 1018 923 914 904 864 817 826 829 793 766 728 747 753 711 690 721 750 710 688 669 648 598 581 527 580 579 647 687 694 709 743 804 846 905 823 790 765 689 718 678 654 668 703 698 729 663 594 611 638 602 578 554 523 544 511 548 495 531 507 424 465 501 513 543 551 558 601 618 632 606 657 662 642 664 692 723 720 751 776 775 756 794 767 783 808 843 865 944 980 948 875 854 818 839 884 851 821 778 758 741 768 800 813 842 869 922 947 952 972 932 928 898 863 838 803 828 874 881 921 941 992 1014 998 1076 1105 1027 1057 1085 1198 1297 1344 1255 1310 1412 1144 1030 1028 1199 1359 1415 1507 1533 1540 1504 1452 1374 1302 1249 1209 1159 1149 1080 1171 1214 1287 1362 1437 1535 1433 1319 1288 1275 1235 1185 1256 1333 1390 1491 1589 1644 1689 1797 1699 1671 1654 1785 1717 1599 1625 1666 1633 1702 1848 1822 1806 1739 1649 1677 1684 1616 1578 1496 1532 1510 1590 1687 1774 1821 1778 1804 1770 1829 1803 1670 1653 1513 1470 1486 1346 1306 1332 1376 1406 1378 1269 1228 1213 1086 1070 1044 950 937 872 807 779 740 719 684 641 630 660 643 610 651 685 735 700 597 533 512 561 503 470 447 471 499 542 566 475 532 607 653 704 739 801 812 860 857 903 792 853 891 895 949 986 1066 1078 1152 1170 1127 1154 1072 1196 1241 1212 1254 1386 1494 1472 1485 1706 1836 1892 1931 1854 1760 1716 1801 1730 1808 1919 1891 1908 1874 1722 1726 1709 1732 1788 1796 1772 1737 1719 1660 1607 1382 1184 1203 1305 1389 1331 1174 1169 1102 1069 967 982 936 907 909 955 1016 971 975 900 850 746 575 540 572 608 596 650 682 697 730 764 772 814 820 837 856 845 855 836 816 777 738 609 574 550 428 445 435 403 417 384 395 421 386 364 367 375 402 458 451 441 422 504 497 535 645 680 629 577 536 500 483 460 433 413 368 353 336 308 285 264 274 309 387 429 405 416 407 385 312 281 291 303 253 215 249 269 250 230 218 234 238 255 265 320 327 332 372 399 436 556 616 590 633 640 555 491 514 502 461 389 423 401 379 351 346 323 306 280 260 243 214 205 186 182 192 132 143 147 179 166 161 198 223 189 235 298 326 297 321 339 357 377 410 459 496 505 515 516 552 583 587 539 545 484 446 437 462 448 388 376 352 335 349 310 292 284 248 217 183 176 177 144 134 129 127 84 68 66 83 102 90 135 150 138 121 111 107 98 64 81 54 47 40 48 79 88 115 163 153 157 155 124 119 112 104 91 77 71 89 120 55 63 72 56 62 82 87 101 92 116 113 133 146 175 225 232 242 259 228 178 173 196 210 211 188 170 206 220 184 156 164 174 209 219 237 254 270 258 266 300 316 359 404 398 411 468 508 506 559 595 631 619 592 634 670 636 681 786 797 831 830 873 867 929 911 918 858 787 762 725 712 706 707 686 620 564 509 455 524 492 452 434 412 380 358 369 356 344 340 315 330 333 345 276 275 262 268 294 318 324 363 443 382 361 322 301 293 261 240 245 226 193 172 162 160 137 131 128 149 197 286 348 305 331 337 355 360 302 362 381 415 397 396 409 431 453 488 546 534 562 517 573 530 528 489 457 430 450 469 510 560 655 671 661 665 708 679 726 769 866 788 693 635 666 622 621 677 748 759 791 781 833 773 859 795 815 832 871 927 991 1000 976 962 1091 1071 1051 1116 1131 1224 1090 1110 1088 1038 987 961 1046 1040 1079 1103 1188 1239 1334 1368 1438 1388 1399 1505 1571 1612 1690 1740 1733 1771 1858 1870 1914 1940 1966 1902 1815 1638 1519 1509 1456 1400 1428 1375 1335 1257 1222 1280 1328 1457 1471 1562 1525 1488 1336 1210 1240 1197 1119 1132 1100 1125 1147 1150 1202 1246 1133 1120 1107 1039 1047 1001 963 930 994 1021 1012 1067 1134 1189 1258 1259 1369 1385 1416 1458 1383 1430 1497 1528 1520 1418 1573 1601 1645 1692 1798 2047 2022 2043 2068 2107 2028 2023 2059 1997 1929 1935 1871 1853 1765 1764 1668 1641 1574 1619 1577 1434 1356 1311 1233 1135 1087 1026 1002 988 945 926 1003 1010 940 956 964 1049 1095 1136 1156 1190 1074 1053 1083 1048 1033 1058 1068 1112 1267 1337 1446 1459 1453 1451 1401 1363 1282 1260 1191 1137 1108 1063 977 943 1004 1084 1104 1064 984 915 844 834 819 879 888 913 934 973 1005 1029 1106 1113 1168 1234 1338 1366 1402 1474 1463 1477 1521 1602 1596 1542 1530 1495 1445 1431 1266 1247 1326 1364 1403 1357 1419 1350 1273 1236 1289 1261 1148 1138 1054 979 916 912 894 754 683 696 715 724 658 625 613 603 586 557 576 538 656 570 541 490 477 442 463 487 567 624 612 672 675 691 734 824 761 705 714 713 623 563 529 482 481 518 493 419 391 365 392 383 343 329 313 278 263 231 199 185 167 158 142 139 125 106 95 109 93 78 49 42 38 75 59 46 41 32 31 29 23 17 22 24 21 15 13 9 10 19 30 39 60 76 96 122 169 168 181 204 224 233 277 314 366 296 279 236 151 194 187 201 289 325 425 406 474 480 599 652 626 584 525 547 591 582 673 649 627 716 752 749 736 774 731 727 796 789 811 825 841 809 782 733 699 553 585 521 472 438 479 420 432 440 444 408 456 498 473 466 588 614 639 486 467 426 393 370 317 334 347 350 374 378 373 267 256 271 247 239 203 221 212 251 252 272 283 311 282 295 319 354 307 328 390 414 439 464 593 628 676 605 674 520 537 519 571 565 494 478 418 400 342 338 304 299 287 273 246 241 213 229 222 216 200 126 123 94 154 165 108 114 105 57 67 61 99 69 52 50 53 26 6 3 1 35 43 34 27 33 73 70 80 44 28 20 16 37 25 36 18 14 12 4 8 7 11 5 2 45 51 58 65 74 110 118 202 227 244 288 290 257 208 180 140 148 159 145 141 152 207 190 195 191 171 136 130 117 85 100 103 86 97 341 476 522 604 589 549 646 667 568 485 449 394 371 427 454 569 600 615 617 526 637 695 757 780 702 722 763 742 760 847 902 810 802 745 737 644 659 701 717 732 798 882 890 901 931 892 840 868 886 908 925 974 933 981 983 990 1041 1025 1015 899 917 954 1017 1123 1111 1129 1290 1312 1347 1128 1146 1151 1117 1094 1055 1042 1024 1056 985 920 946 1009 995 1008 1031 1050 1077 1089 1142 1155 1204 1237 1341 1263 1160 1121 1126 1205 1194 1358 1321 1405 1629 1640 1614 1588 1597 1565 1550 1522 1484 1393 1251 1309 1270 1348 1277 1218 1157 1153 1193 1227 1161 1264 1308 1178 1182 1162 1183 1216 1165 1232 1293 1179 1223 1314 1371 1329 1172 1145 1114 1098 1175 1208 1252 1283 1294 1345 1379 1425 1436 1424 1417 1435 1473 1536 1514 1531 1566 1569 1593 1580 1547 1508 1468 1501 1464 1414 1351 1407 1313 1225 1279 1342 1384 1592 1581 1559 1630 1674 1714 1734 1697 1669 1642 1545 1591 1627 1634 1662 1708 1831 1859 2146 2169 2124 2179 2105 2066 2177 2210 2235 2223 2158 2133 2142 2197 2167 2153 2089 2018 1972 1999 2065 2010 1973 1986 2027 1923 1884 1974 2032 2015 2007 1846 1779 1756 1755 1767 1826 1794 1766 1731 1809 1736 1696 1695 1673 1576 1605 1564 1500 1462 1301 1244 1323 1229 1141 1093 1061 1023 1007 989 993 1065 1140 1192 1262 1300 1274 1325 1340 1404 1461 1447 1478 1460 1394 1339 1276 1207 1158 1099 1006 966 1022 924 935 965 1019 1034 1092 1139 1248 1304 1391 1475 1529 1575 1603 1713 1818 1746 1609 1608 1657 1665 1694 1639 1560 1613 1661 1748 1792 1790 1718 1675 1685 1758 1819 1907 1912 2013 1971 1924 1933 1866 1894 1863 1915 1970 2084 2113 2103 2152 2199 2238 2243 2196 2039 2058 1969 1832 1883 1922 1952 1887 1856 1837 1783 1693 1617 1724 1745 1817 1830 1872 1900 1946 2012 1951 1968 2000 1989 2044 2123 2157 2205 2247 2336 2396 2397 2460 2542 2504 2450 2361 2306 2327 2353 2307 2299 2200 2172 2094 2030 1996 2024 2064 2144 2139 2280 2257 2351 2369 2521 2574 2497 2400 2354 2253 2338 2413 2447 2669 2655 2567 2565 2519 2588 2620 2614 2697 2724 2741 2715 2743 2781 2840 2805 2714 2746 2813 2831 2911 2944 2987 3004 2975 2986 3001 2996 2824 2742 2761 2847 2812 2684 2583 2482 2383 2328 2276 2262 2148 2129 2062 2171 2195 2284 2273 2298 2364 2476 2527 2577 2675 2725 2779 2788 2829 2817 2896 2858 2897 2904 2945 3014 3148 3167 3185 3263 3290 3196 3147 3110 3163 3138 3062 2985 2953 2907 2925 2871 2790 2717 2785 2770 2799 2826 2948 2974 3000 3030 3089 3142 3183 3149 3085 3051 3176 3211 3314 3366 3324 3334 3282 3264 3246 3182 3131 3050 2910 2938 2901 2892 2856 2935 3044 3009 2971 2914 2886 2807 2750 2740 2723 2707 2689 2716 2674 2705 2767 2857 2774 2721 2712 2671 2661 2530 2448 2510 2538 2487 2428 2469 2449 2498 2520 2553 2418 2315 2289 2266 2220 2249 2288 2334 2357 2407 2409 2470 2550 2665 2593 2494 2463 2581 2686 2606 2645 2543 2499 2471 2368 2432 2430 2399 2367 2329 2294 2346 2366 2308 2268 2244 2282 2279 2204 2201 2180 2063 2011 1967 2014 2091 2110 2162 2097 2086 2046 1963 1921 1816 1781 1672 1554 1572 1584 1691 1775 1712 1800 1833 1888 1920 1992 2053 2185 2128 2092 2151 2168 2261 2322 2340 2404 2415 2435 2439 2569 2653 2676 2656 2609 2628 2709 2729 2756 2748 2808 2837 2865 2810 2855 2845 2861 2917 2957 3006 2983 2999 2984 3022 3073 3126 3156 3145 3239 3165 3166 3094 3252 3304 3267 3343 3409 3430 3488 3470 3448 3386 3364 3235 3190 3140 3218 3308 3322 3355 3431 3557 3537 3530 3515 3542 3601 3575 3729 3801 3840 3892 3944 3947 3936 3900 3862 3793 3751 3717 3704 3679 3616 3571 3606 3648 3715 3813 3901 3949 3974 3973 3909 3807 3560 3451 3476 3503 3455 3491 3468 3504 3385 3388 3353 3307 3172 3139 3152 3081 3117 3036 3027 2933 3002 2995 3067 3090 3101 3150 3170 3164 3224 3369 3266 3372 3404 3395 3502 3622 3590 3526 3632 3699 3754 3762 3844 3914 4005 4028 4098 4088 4076 4135 4159 4271 4302 4237 4276 4321 4345 4256 4158 4208 4249 4299 4374 4444 4519 4581 4627 4731 4768 4783 4747 4694 4637 4599 4556 4460 4456 4397 4372 4305 4241 4214 4143 4081 3986 4046 4103 4157 4252 4319 4325 4378 4429 4506 4616 4695 4873 4892 4921 4859 4795 4712 4681 4642 4607 4567 4446 4315 4272 4376 4330 4230 4063 4145 4172 4056 3978 3932 3933 3983 4066 4082 4110 4187 4238 4307 4282 4221 4170 4086 3994 3975 3924 3904 3915 3799 3790 3818 3760 3628 3721 3744 3629 3527 3706 3724 3725 3665 3642 3587 3473 3474 3396 3548 3638 3763 3896 3819 3920 3969 4036 4012 3911 3868 3742 3698 3673 3633 3582 3549 3517 3500 3465 3456 3387 3332 3285 3258 3216 3212 3134 3028 3065 3071 3195 3197 3352 3480 3522 3347 3367 3309 3273 3296 3251 3280 3377 3561 3565 3583 3584 3603 3658 3688 3831 3814 3832 3851 3794 3716 3602 3545 3424 3466 3572 3709 3864 3847 3925 3981 4051 4050 4044 4073 4161 4207 4184 4153 4239 4219 4131 4177 4160 4152 4191 4216 4283 4334 4294 4263 4227 4176 4099 4089 4065 3882 3846 3877 3779 3809 3850 3791 3863 3906 4001 4079 4116 4205 4226 4273 4286 4295 4261 4242 4196 4169 4154 4109 4093 4234 4167 4164 4190 4337 4341 4349 4390 4331 4357 4409 4447 4531 4528 4500 4553 4532 4561 4605 4657 4734 4804 4818 4791 4780 4843 4860 4891 4813 4862 4915 4933 4867 4805 4750 4704 4726 4830 4886 4876 4856 4831 4758 4658 4670 4728 4852 4944 4967 4948 4977 5095 5111 5167 5130 5163 5185 5204 5291 5244 5225 5178 5219 5206 5154 5140 5112 5104 5051 5030 4945 4897 4923 4955 4997 4815 4834 4765 4727 4690 4675 4640 4646 4659 4653 4617 4644 4608 4626 4579 3926 4094 4128 4185 4225 4198 4231 4284 4275 4633 4660 4760 4619 4638 4634 4684 4701 4719 4781 4808 4853 4835 4745 4839 4810 4770 4671 4632 4563 4631 4580 4796 5043 5370 5394 5278 5340 5376 5322 5351 5299 5192 5328 5277 5383 5367 5355 5393 5364 5392 5476 5455 5396 5261 5186 5146 5103 5136 5171 5232 5267 5317 5330 5354 5276 5264 5234 5128 5187 5205 5230 5272 5301 5359 5380 5475 5518 5542 5582 5637 5664 5714 5732 5693 5638 5519 5583 5616 5566 5567 5543 5617 5584 5585 5520 5544 5545 5456 5331 5222 5199 5180 5087 4924 4931 4941 5044 5077 5118 5259 5250 5114 5091 4972 4925 4994 5283 5168 4988 4929 4998 5028 5341 5439 5481 5411 5305 5239 5312 5467 5487 5424 5379 5441 5574 5573 5588 5577 5550 5526 5511 5501 5488 5478 5485 5508 5521 5547 5605 5651 5669 5623 5590 5572 5618 5647 5640 5600 5586 5599 5604 5649 5650 5667 5666 5665 5694 5901 5886 5857 5879 5792 5798 5776 5794 5802 5804 5858 5865 5920 5906 5796 5905 5927 5925 6024 6022 6005 6046 6054 6062 6126 6114 6113 6096 6149 6292 6226 6199 6128 6143 6184 6180 6279 6344 6376 6508 6548 6604 6668 6759 6873 6677 6848 6740 6707 6465 6456 6392 6299 6247 6258 6276 6283 6384 6826 6808 6886 6940 7109 7160 7276 7284 7330 7305 7358 7242 7213 7219 7271 7272 7260 7311 7280 7231 7199 7175 7181 7172 7112 7162 7061 7084 6955 7048 7099 7157 7178 7196 7211 7251 7350 7415 7409 7413 7435 7394 7340 7319 7301 7210 7189 7248 7329 7420 7385 7307 7277 7173 7098 6971 7051 7083 7065 6983 7007 7028 6980 6959 6810 6526 6407 6394 6119 6085 6055 6031 6084 6076 6080 6075 6081 6057 6074 6118 6234 6487 6416 6562 6590 6449 6375 6446 6461 6489 6561 6607 6627 6659 6715 6775 6802 6792 6872 6936 6901 6960 7037 7081 7013 6972 6877 6867 6769 6844 6694 6631 6758 6747 6906 6991 7170 7233 7410 7393 7401 7416 7390 7388 7396 7392 7361 7355 7289 7201 7203 7165 7133 7171 7227 7286 7296 7344 7356 7379 7384 7405 7417 7403 7412 7391 7400 7364 7395 7376 7315 7270 7225 7208 7253 7295 7331 7346 7287 7235 7230 7146 7124 7097 7117 7137 7147 7174 7106 7087 7139 7082 7023 7018 7078 7069 7046 7032 7006 6965 6957 6885 6879 6825 6697 6634 6596 6566 6525 6490 6426 6346 6262 6236 6328 6383 6435 6340 6158 6087 6079 6045 5992 5981 6018 5958 5987 6025 6123 6088 6044 5989 5959 5937 5918 5856 5833 5791 5775 5855 5878 5900 5936 5969 5991 5980 6007 5979 6052 6061 6094 6116 6110 6141 6163 6235 6341 6287 6225 6166 6121 6127 6148 6169 6281 6196 6151 6109 6053 6111 6129 6162 6204 6239 6327 6396 6389 6210 6160 6117 6073 6091 6095 6048 6023 5995 5986 5988 6028 6027 6017 5985 5956 5982 5998 6019 6059 6112 6083 6056 6043 5999 6029 6049 6003 5957 5917 5853 5832 5899 5854 5733 5755 5774 5790 5754 5716 5715 5773 5831 5916 5852 5851 5915 5898 5850 5789 5813 5772 5731 5753 5692 5636 5581 5541 5499 5517 5540 5565 5635 5712 5730 5751 5713 5691 5752 5812 5849 5935 5877 5811 5771 5729 5711 5690 5728 5770 5769 5768 5689 5663 5634 5615 5564 5563 5662 5688 5661 5687 5727 5660 5659 5710 5750 5767 5809 5788 5847 5876 5896 5976 5934 5914 5830 5810 5848 5897 5977 6070 6179 6294 6217 6260 6301 6335 6460 6600 6617 6639 6720 6778 6862 6934 6946 6961 6881 6857 6815 6818 6760 6675 6638 6583 6483 6515 6428 6372 6358 6255 6216 6298 6311 6326 6413 6530 6682 6655 6757 6917 6856 6931 6943 6837 6763 6719 6613 6511 6427 6288 6233 6224 6177 6269 6106 6069 6014 5954 5846 5895 5787 5726 5686 5685 5633 5612 5613 5614 5560 5538 5495 5539 5561 5496 5515 5562 5473 5453 5497 5454 5391 5348 5247 5368 5474 5498 5516 5369 5332 5433 5397 5177 5145 5152 5229 5237 5324 5366 5275 5173 5190 5153 5089 5061 5023 4902 4890 4976 4996 5099 5075 5110 5072 5046 4987 5058 4938 4962 5007 5198 5228 5188 5323 5361 5316 5293 5210 5151 4989 4928 4866 4855 4752 4678 4622 4589 4649 4612 4699 4651 4614 4557 4521 4457 4469 4481 4417 4406 4403 4475 4516 4496 4534 4570 4545 4513 4309 4317 4347 4398 4488 4548 4555 4623 4572 4777 4922 5031 4957 4807 4749 4713 4674 4537 4821 4885 4937 5116 5121 5148 5057 5102 5170 5166 5200 5269 5390 5402 5432 5431 5373 5221 5156 5129 5196 5123 5066 4978 4934 5002 5047 5001 4908 5033 5100 5125 5195 5401 5313 5382 5406 5280 5214 5249 5039 5120 5124 5113 5207 5298 5385 5347 5413 5430 5472 5494 5452 5493 5471 5470 5429 5428 5415 5144 5017 4971 4809 4802 4824 4680 4595 4639 4736 4536 4522 4497 4422 4405 4426 4462 4501 4517 4551 4606 4735 4775 4889 5026 4982 4986 5119 5082 5217 5292 5335 5451 5469 5388 5360 5268 5258 5162 5353 5311 5271 5344 5427 5492 5557 5578 5608 5631 5679 5630 5629 5537 5491 5425 5450 5426 5381 5372 5303 5179 5263 5169 5105 5042 4959 4898 4920 4829 4801 4850 4769 4620 4569 4483 4428 4441 4364 4340 4318 4360 4293 4235 4188 4136 4083 4052 3951 3894 3805 3776 3741 3680 3670 3613 3581 3531 3486 3445 3400 3360 3428 3479 3490 3477 3518 3595 3692 3691 3745 3728 3730 3773 3843 3830 3838 3750 3615 3543 3553 3539 3520 3487 3472 3552 3683 3731 3626 3483 3381 3323 3379 3289 3361 3402 3475 3457 3450 3407 3328 3299 3238 3222 3221 3277 3279 3325 3237 3189 3181 3159 3169 3109 3121 3155 3119 3186 3295 3306 3329 3269 3265 3283 3228 3247 3351 3382 3507 3419 3433 3405 3514 3641 3559 3529 3496 3440 3422 3478 3588 3577 3631 3675 3757 3792 3859 4016 4042 4156 4179 4204 4201 4138 4070 4123 4003 3929 3861 3902 3835 3816 3783 3726 3690 3761 3804 3766 3734 3707 3668 3635 3568 3556 3597 3634 3759 3833 3839 3891 3948 4060 4062 4020 4009 3993 3918 3893 3837 3899 3923 3955 4004 4041 4055 4137 4174 4181 4223 4267 4292 4356 4217 4346 4388 4443 4380 4358 4260 4192 4134 4240 4268 4312 4333 4243 4306 4396 4427 4383 4507 4661 4709 4756 4601 4539 4465 4482 4503 4578 4688 4741 4828 4980 5010 5000 4956 5049 5094 5080 5172 5223 5357 5399 5377 5326 5220 5189 5132 5193 5115 5090 5158 5081 5070 4975 4903 4838 4759 4703 4645 4687 4772 4700 4677 4586 4625 4540 4461 4414 4375 4494 4611 4543 4643 4711 4771 4823 4907 4952 4966 4995 5053 5035 5096 5041 5025 4981 4896 4893 5006 5165 5321 5336 5273 5297 5404 5449 5490 5468 5536 5489 5556 5652 5587 5570 5522 5442 5436 5407 5253 5371 5257 5243 5309 5134 5063 4899 4927 4992 5059 5122 4970 4881 4854 4812 4870 4912 5029 4983 5048 5022 4906 4990 5069 5014 4999 5040 5086 5149 5262 5352 5412 5325 5242 5157 5109 5045 5038 4951 4930 5013 4943 4901 4883 4863 4836 4707 4740 4725 4774 4857 4900 4847 4767 4708 4691 4541 4492 4590 4654 4685 4594 4576 4582 4470 4451 4480 4515 4526 4571 4692 4790 4833 4894 4911 4954 5056 5117 5097 5071 5032 5203 5241 5231 5306 5405 5460 5486 5524 5529 5546 5535 5575 5628 5555 5523 5461 5420 5400 5339 5227 5286 5320 5334 5256 5213 5161 5016 5009 4953 5079 5194 5246 5191 5139 5092 5282 5395 5438 5387 5398 5448 5506 5549 5592 5594 5482 5507 5447 5403 5362 5290 5314 5338 5201 5209 5182 5175 5076 4991 4950 4913 4918 4965 5012 5062 5074 5098 5150 5208 5281 5226 5260 5101 5021 5052 5085 5155 5270 5319 5138 5015 4932 4878 4916 4964 5083 4926 4869 4721 4603 4538 4533 4489 4510 4593 4609 4650 4705 4730 4820 4840 4782 4706 4832 4864 4837 4811 4755 4754 4689 4724 4816 4757 4814 4827 4868 4940 4817 4875 5011 5036 5160 5248 5315 5419 5435 5445 5356 5343 5294 5310 5346 5252 5159 5084 5067 5020 5034 5106 4935 4861 4785 4715 4698 4652 4624 4597 4573 4499 4448 4382 4399 4323 4233 4130 4175 4120 4100 4068 3982 3987 3970 3941 3971 4021 4035 4112 4119 4078 4038 4074 4114 4197 4303 4385 4498 4511 4438 4377 4298 4259 4311 4387 4468 4472 4554 4615 4584 4676 4779 4806 4718 4763 4739 4668 4600 4662 4618 4547 4493 4476 4575 4648 4525 4523 
