Best cost: 407717
Time: 4228.94
Route:
1386 1385 1401 1412 1400 1384 1371 1341 1281 1265 1259 1252 1268 1272 1280 1292 1279 1271 1264 1251 1238 1258 1263 1237 1226 1196 1220 1233 1239 1240 1227 1203 1197 1213 1228 1214 1198 1160 1179 1161 1137 1146 1151 1116 1089 1076 1101 1075 1047 1058 1074 1088 1111 1087 1105 1145 1159 1144 1143 1142 1126 1121 1140 1130 1150 1125 1129 1136 1141 1169 1178 1195 1186 1185 1250 1295 1299 1288 1276 1177 1176 1135 1124 1113 1071 1011 982 929 896 897 910 911 937 898 886 885 811 794 758 735 751 684 660 647 659 670 669 658 657 683 682 703 734 750 766 774 793 827 765 749 757 756 755 772 790 747 733 748 646 656 668 625 606 594 566 567 563 551 537 502 501 489 463 414 434 428 448 450 469 477 483 593 645 702 721 711 694 681 666 664 633 663 691 700 696 718 714 722 731 761 764 789 804 819 818 835 836 863 862 907 893 920 936 950 952 953 921 922 908 919 872 894 909 895 949 954 961 964 981 980 1034 1134 1070 1021 1035 1096 1120 1054 951 844 826 845 854 871 884 846 791 792 773 763 743 744 746 713 693 678 709 720 712 710 623 629 624 667 643 655 644 631 632 579 536 531 535 513 530 534 549 550 558 562 561 560 602 621 628 692 690 680 604 622 701 719 745 729 730 762 783 803 817 816 825 810 788 782 732 695 679 665 642 641 630 620 605 603 592 581 580 559 476 470 467 456 413 471 468 484 472 462 449 440 441 473 475 403 405 362 348 333 319 289 298 302 303 301 313 314 318 326 327 361 341 292 258 299 286 277 265 290 266 264 254 241 242 231 232 237 222 191 181 172 171 174 177 178 180 173 175 189 204 203 205 179 165 160 166 164 156 155 144 136 154 159 147 124 115 113 112 93 98 73 66 59 75 69 61 89 99 92 114 129 130 135 146 145 128 106 101 91 84 85 82 74 68 67 57 58 72 83 100 81 90 60 33 18 23 27 52 47 48 32 26 13 9 8 5 12 17 10 16 19 28 20 1 6 29 31 42 45 46 86 76 43 87 148 167 190 194 197 206 196 192 188 195 211 217 212 220 213 219 221 230 236 257 263 275 276 288 291 300 287 285 273 274 256 245 229 218 207 168 137 116 117 62 40 49 77 53 39 34 14 2 11 3 24 35 54 55 70 56 63 36 21 15 22 4 7 37 41 50 71 64 78 109 108 95 94 102 107 131 138 139 150 149 157 162 169 126 125 161 198 214 223 233 246 278 304 308 315 334 363 376 370 354 355 335 328 293 267 247 234 224 208 238 248 294 305 279 485 492 503 511 552 584 569 543 542 583 608 582 541 510 520 568 607 685 686 737 736 767 805 812 820 837 838 855 856 828 784 806 775 829 864 923 938 965 971 1012 1085 1086 1097 1098 1110 1099 1072 1056 1055 1013 983 966 956 955 946 924 912 887 830 873 888 889 874 875 899 914 913 925 941 940 939 947 984 972 985 973 986 994 1000 1022 1023 1036 1045 1057 1100 1114 1104 1073 1046 995 967 957 930 915 876 877 900 916 926 931 942 927 901 878 847 839 831 795 796 807 776 797 798 808 840 902 928 879 865 848 866 903 932 943 968 974 996 1014 948 958 959 997 992 998 1001 1024 987 975 970 969 960 904 852 833 813 851 850 849 867 832 821 809 787 759 779 786 778 777 785 800 858 857 799 752 739 728 716 699 662 650 673 688 698 705 727 715 726 725 738 687 724 671 697 723 704 609 595 553 585 586 610 634 587 570 626 648 672 661 649 635 611 588 571 554 544 538 521 514 522 515 545 564 612 613 614 636 615 589 596 637 651 597 616 652 674 689 706 675 638 627 600 557 574 556 573 599 598 590 572 565 555 546 523 516 524 512 525 539 532 533 526 517 504 493 494 495 496 507 506 505 518 527 547 548 575 617 591 576 540 519 480 509 508 498 497 490 486 479 474 433 420 398 399 381 380 339 331 310 281 271 250 225 239 249 262 261 280 297 306 351 360 432 446 454 465 453 460 445 459 458 439 464 425 410 418 438 437 457 452 444 424 409 408 404 397 392 388 387 391 390 396 386 407 417 422 423 431 436 443 451 442 435 430 429 416 415 406 395 377 385 389 379 378 373 374 356 357 349 342 329 330 320 343 350 336 337 358 364 371 393 411 419 412 365 359 344 321 338 322 323 316 317 309 295 296 270 260 269 268 259 255 209 215 199 182 183 184 185 186 170 200 201 216 226 251 240 227 193 152 151 118 110 119 96 30 25 79 120 127 140 163 158 153 132 104 103 80 51 38 44 65 97 111 121 133 134 122 123 88 105 143 142 141 176 187 202 210 228 244 243 272 235 253 252 312 325 332 324 307 284 283 282 311 345 352 366 346 353 368 367 375 372 400 382 401 402 340 347 383 426 447 487 481 488 500 482 528 640 601 577 491 461 455 421 427 394 369 384 466 478 499 578 618 741 529 619 742 869 891 963 1004 1026 977 978 918 870 771 815 843 892 906 935 991 1033 1032 1031 1030 1010 1009 1008 1020 1044 1043 1042 1041 1040 1019 1029 1028 1007 979 990 1006 1018 999 989 1005 1027 1065 1039 1051 1066 1084 1067 1052 1053 1068 1069 1103 1109 1115 1132 1149 1156 1154 1192 1222 1253 1245 1219 1210 1211 1193 1182 1167 1155 1183 1194 1212 1223 1232 1246 1254 1314 1322 1342 1355 1354 1309 1362 1407 1482 1552 1430 1419 1499 1500 1522 1614 1643 1673 1615 1577 1559 1514 1513 1483 1472 1484 1467 1441 1431 1379 1380 1408 1373 1363 1397 1452 1468 1515 1561 1560 1629 1654 1674 1690 1689 1725 1736 1735 1782 1898 1977 1997 1998 2080 2079 2078 2052 2114 2286 2226 2148 2081 2082 2031 1999 1928 1953 1978 2000 1979 1929 1930 1931 1903 1904 1932 1933 1934 1905 1875 1876 1877 1853 1852 1824 1806 1785 1766 1750 1749 1739 1727 1711 1692 1691 1678 1665 1666 1656 1657 1647 1648 1658 1679 1693 1712 1740 1751 1786 1807 1787 1768 1767 1752 1741 1713 1694 1695 1681 1667 1649 1680 1659 1635 1619 1605 1606 1593 1592 1591 1578 1590 1618 1634 1646 1633 1632 1631 1645 1655 1664 1676 1677 1709 1710 1738 1765 1805 1822 1823 1851 1874 1873 1872 1850 1821 1849 1871 1848 1820 1846 1847 1870 1902 1901 1900 1899 1869 1845 1868 1844 1843 1804 1784 1783 1803 1802 1763 1764 1748 1737 1726 1708 1675 1644 1630 1616 1617 1603 1604 1589 1588 1587 1562 1570 1542 1534 1579 1620 1753 1788 1808 1855 1879 1941 1961 1962 1910 1909 1827 1857 1856 1826 1825 1789 1660 1594 1580 1607 1621 1622 1714 1728 1742 1754 1770 1755 1743 1756 1744 1715 1729 1771 1792 1814 1832 1813 1812 1831 1830 1811 1791 1769 1790 1810 1809 1828 1829 1880 1911 1963 2010 2039 2038 2009 2008 2060 2059 2086 2087 2088 2089 2121 2122 2123 2159 2234 2235 2262 2261 2294 2233 2324 2357 2415 2387 2356 2355 2323 2293 2260 2209 2208 2157 2158 2120 2058 2037 2085 2084 2057 1960 1940 1986 2007 1959 1908 1958 1939 1878 1854 1907 1938 1937 1957 1985 1984 1956 1936 1906 1955 1983 1954 1935 1982 2004 2033 2034 2005 2006 2035 2036 2056 2119 2232 2257 2231 2256 2255 2206 2155 2156 2118 2055 2054 2083 2053 2003 2002 1981 1980 2001 2032 2116 2149 2115 2202 2227 2203 2204 2181 2150 2151 2152 2153 2117 2154 2182 2205 2228 2253 2229 2230 2254 2290 2317 2350 2349 2381 2409 2410 2472 2490 2444 2380 2316 2289 2288 2252 2287 2315 2314 2379 2408 2443 2545 2606 2648 2670 2690 2794 2877 2895 2908 2909 2928 2896 2878 2879 2822 2847 2823 2795 2768 2880 2910 2929 2966 3018 3008 3007 2974 2946 2955 2965 3029 3006 3028 3037 3098 3073 3108 3158 3159 3141 3109 3172 3205 3225 3254 3272 3362 3363 3471 3487 3577 3621 3714 3725 3695 3746 3794 3826 3841 3929 3952 4036 4070 4084 4087 4163 4228 4196 4342 4321 4281 4209 4130 4079 4005 3940 3953 3984 4019 4048 3954 3902 3885 3884 3863 3883 3862 3836 3842 3827 3828 3848 3857 3886 3892 3911 3912 3941 3985 3955 3930 3913 3887 3864 3843 3829 3818 3800 3783 3784 3759 3728 3747 3773 3772 3726 3737 3727 3696 3683 3601 3578 3509 3488 3341 3083 3057 2990 2967 2956 2930 2938 2918 2911 2898 2897 2882 2849 2867 2868 2883 2884 2869 2850 2800 2799 2828 2827 2798 2769 2826 2797 2881 2848 2825 2796 2824 2723 2691 2671 2672 2673 2628 2649 2650 2607 2608 2629 2630 2631 2609 2585 2549 2517 2516 2548 2547 2515 2514 2546 2513 2491 2473 2512 2445 2382 2351 2352 2318 2319 2258 2207 2183 2259 2322 2321 2292 2291 2353 2320 2354 2383 2446 2411 2384 2412 2385 2386 2413 2447 2414 2448 2474 2493 2492 2518 2550 2586 2551 2519 2520 2521 2522 2475 2449 2416 2450 2494 2558 2589 2557 2556 2555 2554 2553 2552 2587 2588 2613 2612 2611 2610 2632 2674 2651 2633 2634 2652 2692 2710 2675 2711 2725 2724 2742 2743 2744 2770 2801 2802 2803 2771 2712 2676 2677 2678 2654 2653 2635 2614 2591 2590 2560 2559 2523 2524 2525 2495 2496 2526 2561 2562 2527 2497 2476 2451 2418 2417 2390 2391 2392 2360 2329 2328 2298 2266 2297 2265 2296 2327 2326 2325 2359 2389 2388 2358 2295 2263 2264 2237 2236 2210 2184 2160 2185 2211 2161 2162 2186 2163 2126 2125 2093 2063 2040 2062 2092 2091 2124 2090 2061 2011 2012 1964 1942 1943 1912 1965 1966 1944 1967 1945 1913 1881 1858 1882 1914 1968 2041 2064 2095 2128 2094 2127 2164 2187 2165 2166 2188 2189 2167 2168 2130 2129 2096 2097 2066 2065 2042 2013 2014 2043 2044 2067 2098 2131 2169 2170 2132 2099 2068 2069 2100 2133 2171 2193 2192 2191 2190 2214 2213 2212 2238 2268 2267 2299 2330 2393 2419 2420 2421 2452 2453 2477 2454 2424 2423 2422 2394 2361 2331 2300 2269 2239 2240 2270 2301 2302 2303 2304 2273 2272 2271 2241 2242 2215 2243 2216 2217 2244 2274 2305 2306 2338 2307 2275 2246 2245 2218 2219 2220 2196 2195 2194 2172 2134 2173 2135 2136 2174 2175 2101 2176 2308 2369 2368 2401 2400 2399 2427 2428 2429 2430 2460 2483 2504 2536 2571 2598 2623 2644 2643 2662 2685 2684 2683 2697 2698 2719 2718 2731 2732 2733 2734 2754 2753 2752 2751 2750 2778 2777 2809 2810 2779 2780 2781 2782 2838 2812 2811 2836 2837 2858 2857 2856 2835 2834 2855 2886 2871 2854 2853 2832 2833 2808 2807 2776 2775 2747 2727 2728 2748 2749 2729 2730 2715 2716 2717 2696 2695 2681 2682 2658 2659 2660 2661 2642 2641 2640 2639 2638 2657 2656 2637 2616 2617 2592 2593 2618 2619 2620 2621 2622 2597 2570 2535 2503 2482 2459 2458 2481 2457 2456 2426 2398 2365 2366 2367 2337 2336 2335 2334 2333 2332 2362 2395 2396 2363 2364 2397 2425 2455 2478 2499 2500 2479 2480 2501 2502 2534 2533 2568 2569 2596 2595 2594 2567 2532 2531 2566 2565 2564 2530 2529 2528 2498 2563 2615 2636 2655 2679 2680 2694 2693 2714 2713 2726 2746 2774 2773 2745 2772 2804 2805 2806 2831 2852 2830 2829 2851 2870 2885 3038 3045 3044 3058 3084 3110 3125 3142 3173 3188 3187 3207 3206 3226 3242 3256 3255 3288 3289 3273 3257 3258 3243 3244 3245 3246 3247 3231 3211 3210 3230 3229 3228 3227 3208 3209 3189 3174 3160 3161 3175 3190 3191 3192 3177 3176 3162 3143 3126 3111 3112 3100 3099 3085 3074 3059 3086 3101 3114 3113 3127 3144 3145 3128 3129 3130 3146 3165 3164 3163 3178 3179 3194 3193 3212 3213 3232 3263 3278 3295 3294 3325 3324 3307 3293 3275 3276 3277 3262 3261 3260 3259 3274 3292 3306 3305 3291 3290 3304 3303 3320 3321 3322 3323 3344 3345 3346 3368 3369 3386 3404 3403 3417 3416 3400 3384 3401 3402 3385 3367 3366 3343 3342 3364 3365 3383 3382 3399 3415 3433 3448 3447 3472 3473 3489 3510 3511 3490 3491 3474 3449 3475 3450 3434 3435 3436 3418 3419 3420 3437 3453 3452 3451 3476 3477 3478 3495 3496 3516 3497 3517 3498 3499 3481 3480 3479 3439 3454 3438 3421 3405 3387 3371 3370 3348 3347 3326 3327 3349 3328 3308 3309 3279 3296 3310 3329 3351 3350 3374 3373 3372 3388 3406 3422 3407 3440 3455 3456 3482 3500 3519 3520 3457 3458 3567 3584 3609 3653 3671 3686 3685 3700 3718 3730 3738 3739 3750 3763 3762 3777 3786 3776 3785 3775 3760 3761 3749 3748 3729 3716 3717 3699 3698 3670 3652 3628 3608 3627 3607 3566 3544 3518 3543 3565 3564 3563 3542 3541 3540 3539 3514 3515 3494 3493 3492 3513 3512 3537 3536 3535 3557 3558 3559 3538 3560 3561 3562 3583 3582 3581 3580 3579 3602 3603 3604 3648 3665 3666 3649 3622 3623 3605 3606 3624 3625 3626 3651 3650 3667 3668 3669 3684 3697 3715 3877 3888 3866 3858 3837 3849 3865 3844 3831 3807 3795 3774 3801 3806 3830 3876 3893 3903 3914 3942 3923 3931 3932 3915 3916 3933 3943 3956 3967 4007 4024 4060 4081 4059 4023 4058 4006 4080 4105 4112 4104 4141 4156 4171 4185 4220 4229 4258 4282 4310 4283 4322 4301 4284 4285 4343 4250 4232 4233 4221 4197 4186 4164 4165 4142 4095 4082 4025 4008 3995 3994 3957 3944 3924 3945 3958 3968 3988 3987 3986 3996 4009 4020 3997 4010 4011 4037 4049 4071 4083 4088 4143 4150 4166 4172 4187 4198 4210 4235 4234 4251 4259 4270 4324 4323 4371 4383 4425 4466 4488 4493 4500 4531 4560 4530 4487 4459 4443 4413 4419 4431 4486 4480 4514 4587 4569 4568 4565 4559 4552 4542 4513 4499 4512 4430 4511 4541 4540 4586 4614 4615 4653 4677 4703 4746 4873 4816 4847 4961 5088 5150 5223 5208 5169 5230 5239 5244 5235 5248 5309 5327 5338 5373 5372 5352 5351 5347 5396 5458 5438 5410 5463 5439 5411 5388 5420 5425 5426 5427 5421 5394 5385 5384 5376 5369 5364 5357 5341 5342 5299 5287 5358 5304 5270 5275 5259 5314 5291 5305 5240 5209 5152 5142 5131 5124 5102 5103 5059 5014 5058 5057 5080 5056 5013 4903 4904 4888 4874 4802 4801 4829 4840 4828 4822 4848 4951 5055 5041 5109 5123 5177 5193 5224 5151 5141 5054 5020 5021 4987 4950 4902 4864 4827 4788 4773 4747 4776 4734 4712 4661 4588 4607 4631 4672 4662 4632 4616 4575 4589 4566 4553 4451 4481 4494 4501 4515 4543 4591 4590 4622 4654 4683 4729 4696 4704 4748 4789 4790 4803 4810 4850 4849 4919 4929 5022 5015 5023 5060 5089 5090 5091 5110 5143 5161 5125 5153 5194 5198 5231 5245 5249 5264 5210 5216 5236 5241 5250 5276 5292 5303 5306 5302 5311 5301 5288 5300 5310 5328 5322 5329 5332 5355 5375 5348 5343 5354 5359 5380 5365 5370 5353 5374 5379 5395 5398 5431 5399 5409 5416 5436 5417 5400 5401 5397 5413 5447 5448 5468 5469 5461 5442 5432 5433 5418 5414 5402 5403 5381 5377 5361 5360 5356 5333 5330 5334 5366 5371 5382 5404 5423 5450 5462 5455 5449 5454 5482 5481 5480 5492 5501 5516 5537 5573 5588 5598 5597 5605 5604 5627 5638 5642 5637 5611 5568 5554 5549 5531 5479 5474 5487 5494 5530 5559 5567 5572 5587 5571 5596 5609 5636 5618 5603 5610 5626 5619 5641 5700 5683 5682 5724 5743 5725 5717 5684 5665 5654 5639 5655 5701 5702 5703 5726 5748 5736 5711 5712 5643 5656 5589 5574 5575 5560 5561 5555 5562 5576 5577 5578 5538 5526 5518 5517 5495 5496 5497 5475 5483 5498 5502 5519 5510 5520 5563 5556 5541 5540 5532 5539 5550 5580 5579 5612 5613 5644 5666 5628 5620 5606 5629 5581 5590 5599 5607 5582 5569 5583 5646 5630 5621 5614 5645 5657 5686 5685 5727 5744 5810 5824 5793 5834 5845 5760 5783 5759 5782 5809 5833 5862 5871 5861 5860 5852 5844 5808 5807 5806 5792 5776 5775 5805 5843 5859 5890 5891 5935 5921 5934 5955 5946 5920 5889 5908 5888 5858 5881 5945 5966 5992 5991 5965 5954 5944 5907 5887 5886 5885 5906 5905 5880 5851 5832 5823 5774 5773 5781 5791 5822 5790 5772 5821 5842 5857 5879 5878 5904 5919 5933 5943 5964 5974 5981 5986 6022 6013 6009 5980 5963 5973 5942 5941 5953 5972 5985 6004 6021 5961 5962 5952 5915 5916 5884 5902 5917 5903 5918 5870 5850 5849 5830 5831 5820 5780 5758 5742 5716 5715 5723 5722 5714 5681 5673 5653 5635 5595 5566 5548 5536 5529 5525 5547 5594 5633 5634 5652 5664 5699 5710 5721 5747 5789 5804 5819 5829 5818 5803 5788 5757 5746 5741 5756 5779 5771 5802 5817 5816 5841 5877 5869 5901 5914 5932 5997 6020 6027 6054 6071 6086 6077 6053 6037 6038 6033 6019 6003 5990 5951 5876 5856 5848 5786 5787 5734 5735 5709 5697 5698 5651 5593 5565 5528 5515 5508 5509 5503 5478 5471 5467 5453 5460 5466 5473 5465 5452 5430 5389 5408 5412 5407 5422 5429 5428 5435 5441 5444 5459 5464 5472 5486 5491 5500 5507 5524 5535 5553 5586 5592 5546 5585 5602 5558 5552 5514 5490 5489 5488 5506 5545 5557 5601 5632 5625 5662 5649 5663 5680 5650 5733 5815 5766 5767 5768 5740 5770 5769 5778 5801 5828 5840 5875 5900 5899 5931 5950 5930 5868 5929 5913 5960 5996 6018 6026 6017 6008 6012 6032 5995 5971 5940 5912 5928 5939 5984 6002 5927 5874 5926 5827 5883 5979 5994 6007 6016 6043 6052 6046 6031 6070 6045 6025 6011 6030 6042 6051 6063 6083 6093 6111 6114 6117 6116 6112 6109 6103 6090 6069 6062 6068 6076 6096 6097 6102 6110 6106 6108 6113 6105 6115 6101 6089 6049 6050 6066 6087 6080 6075 6061 6067 6091 6058 6092 6059 6056 6040 6024 6041 6010 5993 5959 5978 5911 5867 5838 5847 5839 5814 5765 5755 5800 5732 5708 5696 5695 5731 5707 5739 5694 5693 5692 5679 5661 5648 5600 5543 5512 5521 5522 5564 5584 5551 5544 5523 5513 5446 5393 5505 5493 5406 5387 5363 5298 5263 5214 5197 5190 5130 5140 5160 5121 5122 5079 5068 5012 4997 4960 5011 4996 4975 4918 4846 4839 4826 4815 4838 4872 4887 4939 4959 4928 4974 4973 5010 4995 5030 5040 5120 5159 5139 5138 5101 5108 5137 5168 5167 5176 5175 5182 5189 5222 5233 5203 5149 5129 5107 5078 5067 5053 5039 5038 5052 5037 5100 5128 5127 5136 5119 5106 5118 5148 5166 5174 5173 5117 5105 5050 5029 5035 5051 5036 5009 4985 4958 4986 4938 4857 4845 4844 4837 4808 4807 4781 4782 4798 4799 4758 4719 4702 4710 4692 4669 4691 4709 4718 4727 4726 4708 4701 4690 4675 4725 4717 4680 4634 4595 4604 4603 4611 4650 4602 4581 4580 4562 4582 4537 4529 4538 4563 4583 4596 4605 4635 4626 4621 4627 4642 4651 4612 4573 4557 4558 4564 4597 4606 4637 4636 4657 4670 4658 4671 4659 4652 4628 4629 4681 4752 4753 4771 4770 4783 4784 4800 4809 4785 4786 4759 4745 4711 4693 4694 4732 4728 4643 4638 4660 4695 4733 4772 4787 4682 4676 4630 4613 4598 4599 4574 4551 4497 4510 4485 4474 4498 4465 4418 4412 4403 4319 4248 4247 4170 4138 4207 4279 4351 4382 4352 4360 4331 4341 4320 4300 4269 4219 4231 4208 4195 4184 4103 4102 4118 4140 4183 4182 4227 4249 4299 4280 4226 4181 4162 4161 4110 4031 3920 4002 3978 3921 3966 3979 4015 4047 4033 4046 4032 4045 4055 4111 4139 4128 4129 4117 4101 4093 4077 4086 4094 4078 4056 4022 4057 4034 4035 4016 4017 4003 4004 3981 3938 3928 3980 3951 3950 3937 3927 3874 3840 3835 3824 3910 4018 3982 3983 3939 3922 3875 3855 3817 3856 3825 3771 3758 3736 3664 3682 3534 3432 3414 3431 3361 3647 3486 3446 3302 3398 3397 3508 3340 3319 3301 3271 3241 3201 3186 3202 3203 3224 3155 3124 3123 3070 3071 3040 3025 2994 2962 2933 2934 2942 2972 2995 3026 3017 3004 2988 2952 2953 2943 2944 2924 2904 2925 2936 2935 2945 2963 2973 2996 3005 3036 3027 3041 3072 3139 3156 3140 3157 3204 3082 3056 3043 3055 3042 2989 2954 2937 2964 2927 2894 2866 2876 2907 2865 2820 2821 2767 2722 2709 2708 2766 2765 2707 2706 2689 2605 2584 2544 2489 2471 2669 2741 2721 2762 2763 2818 2845 2819 2791 2764 2792 2793 2846 2893 2926 2917 2906 2905 2892 2875 2864 2844 2891 2817 2843 2874 2842 2790 2761 2890 2903 2841 2760 2923 2922 2959 2960 2951 2961 2987 3003 3002 3016 3024 3069 3096 3097 3122 3138 3171 3137 3121 3107 3120 3185 3360 3394 3287 3239 3240 3300 3339 3381 3396 3395 3445 3470 3533 3600 3620 3757 3681 3663 3713 3745 3816 3834 3882 3936 3949 3993 4069 4030 3992 3977 4021 4068 4109 4169 4268 4246 4218 4206 4180 4160 4155 4149 4100 4092 4108 4127 4116 4148 4159 4158 4154 4126 4125 4147 4137 4091 4124 4123 4192 4216 4223 4315 4314 4380 4370 4365 4349 4316 4293 4294 4274 4275 4265 4243 4224 4217 4225 4204 4205 4193 4194 4179 4230 4267 4277 4278 4339 4358 4350 4330 4318 4298 4297 4266 4245 4244 4257 4276 4296 4317 4295 4309 4357 4400 4409 4417 4423 4440 4441 4449 4428 4442 4390 4391 4340 4359 4401 4402 4381 4411 4410 4424 4450 4429 4458 4464 4463 4473 4479 4539 4550 4521 4549 4457 4448 4472 4462 4471 4478 4477 4447 4439 4492 4509 4470 4422 4438 4456 4408 4455 4508 4496 4484 4495 4507 4506 4491 4476 4469 4437 4416 4387 4388 4364 4363 4368 4328 4289 4213 4189 4115 4062 4051 4074 4097 4098 4075 4041 4027 4052 4063 4064 4042 3990 4065 4099 4145 4153 4177 4191 4190 4176 4175 4202 4214 4290 4307 4329 4378 4369 4389 4379 4356 4355 4338 4313 4308 4292 4291 4255 4264 4242 4256 4222 4215 4203 4168 4178 4157 4146 4136 4066 4013 4000 3964 3899 3908 3823 3791 3755 3768 3805 3871 3935 3918 3890 3819 3812 3790 3754 3574 3552 3573 3551 3593 3615 3691 3642 3592 3572 3659 3722 3742 3674 3591 3549 3529 3550 3427 3335 3378 3391 3357 3334 3333 3356 3505 3735 3708 3753 3811 3839 3822 3833 3898 3889 3989 3999 4040 4106 4122 4174 4188 4212 4173 4090 4012 4039 3925 3917 3853 3838 3897 3973 4135 4240 4263 4239 4238 4201 4200 4288 4337 4367 4354 4386 4435 4461 4482 4520 4528 4536 4535 4579 4584 4594 4620 4699 4766 4795 4779 4765 4698 4730 4775 4763 4778 4805 4764 4794 4819 4833 4860 4909 4893 4878 4879 4894 4910 4935 4979 4980 5004 5019 5003 5002 4965 4955 4944 4964 4954 4934 4933 5001 5000 4978 4853 4841 4793 4774 4640 4610 4666 4706 4715 4743 4742 4741 4756 4762 4812 4777 4740 4686 4755 4722 4705 4685 4665 4633 4625 4624 4601 4577 4545 4525 4475 4505 4524 4544 4490 4489 4504 4453 4468 4446 4375 4433 4517 4526 4567 4571 4578 4546 4527 4518 4519 4434 4336 4311 4273 3998 4026 3934 3961 3906 3896 3868 3781 3820 3767 3720 3821 3860 3907 3869 3962 3947 3963 4073 4121 4050 3972 3870 3879 3803 3409 3133 3104 3265 3234 3216 3091 3079 3092 3093 3032 2998 2991 2979 2999 2980 2939 2814 2701 2601 2575 2466 2376 2602 2702 2872 2912 2901 2665 2603 2437 2438 2485 2405 2508 2786 2913 2940 2981 3020 3033 3051 3134 3218 3315 3355 3282 3266 3235 3217 3166 3050 3281 3390 3464 3483 3614 3706 3705 3741 3798 3733 3707 3721 3640 3504 3528 3657 3804 3734 3658 3641 3465 3316 3250 3147 3117 3052 3011 2992 2982 3053 3094 3219 3283 3220 3135 3148 3149 3167 3251 3168 3181 3195 3267 3336 3410 3392 3466 3594 3675 3723 3743 3709 3676 3643 3595 3467 3411 3379 3506 3484 3553 3660 3692 3744 3792 3756 3724 3813 3872 3900 3909 3948 3974 3919 3880 3846 3814 3799 3693 3645 3661 3710 3769 3793 3815 3854 3901 3926 4001 3991 3975 4014 4028 4067 4107 4085 4029 4053 4076 4043 4054 4044 3976 3965 3891 3861 3873 3881 3847 3782 3770 3712 3662 3618 3617 3597 3680 3679 3711 3694 3678 3576 3555 3485 3507 3531 3469 3318 3430 3554 3644 3616 3677 3596 3530 3575 3468 3428 3429 3317 3338 3337 3299 3236 3170 3183 3199 3152 3106 3095 3066 3119 3151 3197 3198 3269 3268 3298 3297 3284 3252 3253 3221 3169 3196 3150 3105 3065 3021 2983 2921 2915 2863 2789 2888 2958 3000 3013 3035 3064 3080 3182 3136 3063 3054 3118 3039 3062 3061 3034 3012 2948 2914 2941 2920 2788 2579 2580 2581 2626 2511 2223 2050 1994 1800 1952 2049 2112 2111 2146 2347 2377 2468 2486 2469 2487 2647 2666 2738 2737 2787 2816 2736 2862 2758 2815 2757 2704 2509 2406 2313 2222 2110 2440 2441 2467 2577 2510 2578 2543 2407 2346 2250 2075 1993 1924 1925 1780 1663 1586 1557 1528 1533 1512 1466 1496 1428 1429 1418 1388 1450 1498 1497 1558 1551 1601 1642 1653 1723 1762 1867 1926 1995 1996 2051 2113 2076 2179 2251 2378 2224 2147 2180 2348 2583 2582 2705 2839 2889 2993 3001 2969 2984 2932 2985 2949 2970 3014 3067 3153 3184 3237 3238 3380 3222 3154 3223 3285 3358 3393 3443 3598 3646 3599 3619 3556 3532 3444 3413 3359 3412 3286 3270 3200 3081 3022 3068 3023 3015 2986 2971 2950 2916 2873 2840 2759 2627 2740 2902 2688 2668 2604 2667 2739 2687 2488 2470 2442 2201 2200 2225 2077 1927 1896 1842 1781 1841 1819 1801 1747 1724 1688 1602 1897 1672 1451 1286 1244 1287 1138 1127 1191 1153 1139 1128 1095 1094 1064 1083 1063 1081 1082 1093 1092 1091 1062 1050 1049 1048 1038 1148 1166 1209 1243 1270 1285 1293 1313 1331 1334 1319 1308 1330 1361 1370 1417 1449 1427 1448 1440 1406 1387 1378 1353 1329 1307 1284 1275 1242 1190 1165 1131 1061 1080 1003 868 883 934 1002 1079 1112 976 882 905 1060 1025 1108 1102 1037 988 945 933 881 890 861 853 770 754 654 639 717 708 677 676 653 707 740 753 768 780 801 781 760 769 802 824 823 842 834 814 822 841 859 860 880 917 944 962 993 1017 1016 1015 1059 1117 1122 1118 1077 1090 1078 1106 1107 1119 1147 1181 1164 1152 1172 1180 1188 1189 1200 1199 1207 1217 1208 1218 1231 1236 1235 1230 1171 1170 1163 1162 1216 1187 1206 1205 1215 1204 1221 1229 1260 1234 1241 1269 1298 1311 1326 1305 1306 1282 1312 1324 1273 1318 1333 1327 1328 1365 1372 1347 1358 1369 1395 1405 1426 1425 1458 1481 1493 1510 1526 1540 1612 1640 1628 1585 1550 1527 1494 1495 1464 1439 1416 1396 1376 1352 1360 1359 1348 1283 1261 1274 1377 1465 1511 1569 1568 1532 1541 1600 1613 1641 1707 1733 1779 1734 1895 1866 1778 1799 1865 1840 1894 1951 1992 2074 2178 2285 2439 2703 2686 2576 2345 2284 2048 2029 2109 2030 1864 1839 1732 1722 1746 1777 1761 1721 1671 1687 1670 1652 1686 1798 1893 1720 1685 1611 1584 1539 1520 1509 1489 1479 1445 1437 1480 1490 1521 1491 1525 1492 1463 1438 1404 1368 1403 1447 1446 1415 1402 1394 1436 1457 1478 1531 1705 1706 1760 1797 2028 2177 2108 1892 1863 2027 1891 1838 1923 2026 1776 1796 1837 1922 1775 1836 1991 1976 1950 1975 2145 2249 2404 2344 2283 2465 2436 2343 2435 2542 2625 2756 2813 2887 2900 2931 2947 2957 2978 2977 3078 3314 3377 3548 3704 3703 3639 3442 3426 3313 3132 3049 3031 3048 3047 3077 3076 3103 3102 3090 3089 3046 3075 3131 3030 2976 3019 3010 2997 2975 2968 3088 3116 3180 3249 3353 3375 3463 3526 3525 3503 3462 3461 3460 3524 3547 3611 3672 3673 3632 3612 3633 3656 3590 3613 3634 3690 3796 3808 3832 3845 3850 3851 3797 3809 3788 3635 3636 3637 3570 3527 3376 3332 3354 3571 3638 3702 3810 3852 3895 3867 3766 3780 3789 3946 4038 4114 4120 4134 4133 4132 4131 4152 4119 4167 4199 4211 4236 4303 4260 4271 4287 4326 4345 4344 4361 4372 4414 4397 4405 4392 4384 4334 4305 4304 4261 4252 4237 4262 4253 4254 4272 4306 4374 4396 4421 4415 4407 4395 4394 4335 4346 4373 4385 4393 4398 4406 4420 4445 4427 4426 4432 4444 4460 4467 4503 4532 4522 4523 4533 4516 4534 4548 4555 4592 4600 4619 4639 4645 4697 4720 4737 4754 4738 4646 4593 4576 4609 4623 4664 4679 4721 4739 4761 4818 4832 4858 4852 4859 4891 4875 4920 4941 4942 4988 4943 4962 4876 4953 4866 4877 4906 4892 4907 4931 4963 5031 5070 5017 4932 4908 4989 5018 4976 4977 5061 5093 5094 5071 5062 5082 5112 5111 5144 5171 5170 5184 5185 5227 5211 5186 5172 5162 5157 5192 5206 5187 5195 5196 5212 5215 5228 5229 5238 5242 5253 5247 5243 5234 5218 5219 5188 5164 5147 5134 5115 5044 5026 5043 5097 5126 5146 5145 5133 5163 5158 5132 5113 5114 5095 5096 5072 5063 5025 4990 4912 4913 4880 4863 4862 4842 4867 4861 4911 4824 4820 4749 4723 4700 4647 4561 4572 4641 4667 4656 4687 4716 4724 4750 4767 4813 4881 4936 4937 4921 4922 4923 4914 4843 4834 4835 4854 4895 4956 4968 5005 4991 4967 4966 5032 5064 5045 5083 5065 5073 5165 5178 5084 5074 5075 5076 5046 5047 5085 5048 5033 5027 4992 4981 4945 4868 4855 4869 4806 4796 4768 4648 4585 4454 4362 4312 4241 4347 4376 4348 4327 4377 4399 4436 4483 4556 4688 4751 4797 4856 4883 4927 4971 4898 4882 4871 4926 4897 4896 4836 4870 4924 4946 4957 4969 4970 4982 5006 5007 4993 4947 4925 4948 4983 4984 5028 5034 5049 5098 5099 5116 5086 5077 4994 4972 4915 4916 4884 4899 4885 4821 4814 4780 4731 4707 4674 4668 4689 4649 4744 4769 4757 4825 4886 4901 4900 4917 5008 4949 5066 5087 5179 5220 5232 5256 5280 5320 5313 5283 5257 5269 5262 5207 5135 5180 5181 5202 5213 5221 5258 5284 5321 5326 5331 5383 5391 5392 5419 5437 5434 5451 5470 5443 5485 5499 5534 5533 5511 5527 5542 5616 5669 5623 5617 5688 5705 5689 5713 5719 5751 5777 5796 5763 5738 5729 5737 5762 5785 5795 5761 5745 5750 5837 5854 5865 5866 5873 5855 5826 5813 5764 5752 5753 5720 5677 5670 5647 5659 5690 5706 5671 5672 5660 5640 5624 5678 5691 5730 5754 5797 5798 5799 5898 5958 6001 6015 6036 6023 5897 5977 5983 5989 6044 6048 6085 6100 6095 6107 6104 6099 6098 6094 6088 6065 6000 5988 5970 5969 5938 5948 5937 5924 5882 5894 5895 5949 5925 5896 5864 5825 5836 5812 5728 5676 5794 5872 5910 5956 5968 5947 5957 5987 5999 6014 6006 6029 6035 6074 6082 6084 6081 6079 6078 6073 6072 6064 6060 6057 6055 6047 6039 6034 6028 6005 5998 5982 5976 5975 5967 5936 5909 5892 5922 5923 5893 5863 5853 5846 5835 5811 5784 5749 5718 5704 5687 5675 5674 5667 5658 5622 5631 5668 5591 5608 5615 5570 5477 5457 5415 5368 5390 5405 5456 5476 5504 5484 5445 5440 5424 5386 5346 5308 5282 5281 5297 5312 5340 5325 5319 5318 5337 5345 5378 5367 5362 5350 5349 5344 5336 5324 5317 5296 5295 5274 5268 5255 5254 5279 5273 5278 5272 5267 5252 5261 5271 5285 5290 5286 5307 5323 5335 5339 5316 5289 5260 5246 5251 5294 5315 5293 5277 5266 5265 5237 5217 5201 5183 5156 5200 5205 5226 5225 5199 5191 5204 5155 5154 5104 5042 5016 4999 5024 5069 5081 5092 4998 4940 4952 4930 4865 4817 4792 4791 4831 4851 4890 4905 4889 4823 4811 4830 4804 4760 4736 4714 4678 4655 4618 4617 4673 4663 4735 4713 4684 4644 4608 4570 4554 4547 4502 4452 4404 4366 4353 4333 4332 4325 4302 4286 4151 4144 4113 4096 4089 4072 4061 3971 3970 3960 3969 3959 3905 3904 3894 3878 3859 3802 3740 3787 3732 3719 3689 3688 3655 3654 3589 3502 3425 3331 3330 3352 3312 3311 3264 3115 3215 3389 3408 3423 3545 3546 3610 3568 3501 3424 3459 3523 3588 3631 3569 3587 3586 3629 3630 3701 3752 3765 3764 3731 3751 3779 3778 3687 3585 3522 3521 3441 3280 3248 3233 3214 3087 3060 3009 2624 2537 2505 2461 2402 2370 2309 2247 2197 2138 2102 2462 2431 2276 2104 2137 2339 2371 2432 2572 2645 2699 2859 2860 2919 2783 2433 2506 2434 2277 1969 1701 1697 1595 1597 1608 1651 1684 1698 1682 1683 1862 1884 1920 1947 2016 2045 2070 2071 1948 1916 1919 1859 1833 1772 1717 1860 1883 1888 2015 1973 1885 1971 1988 2018 2020 2017 2019 1972 1970 1987 1917 1861 1915 1946 1918 1886 1795 1794 1818 1817 1816 1793 1745 1718 1700 1624 1582 1573 1566 1547 1571 1565 1572 1625 1638 1650 1669 1668 1716 1661 1636 1623 1596 1626 1637 1598 1563 1536 1503 1546 1517 1529 1535 1543 1564 1537 1523 1530 1516 1504 1474 1501 1507 1505 1473 1470 1469 1409 1391 1398 1392 1367 1343 1344 1335 1349 1364 1366 1381 1410 1442 1459 1486 1506 1549 1548 1553 1554 1581 1502 1485 1545 1454 1389 1374 1325 1262 1255 1294 1248 1184 1158 1133 1123 1168 1202 1173 1174 1157 1175 1201 1224 1256 1249 1225 1247 1257 1266 1315 1323 1356 1357 1390 1432 1443 1453 1538 1544 1696 1815 1773 1757 1699 1834 1887 2105 2141 2140 2139 2278 2248 2340 2663 2538 2372 2310 2484 2539 2700 2899 2861 2784 2664 2720 2735 2507 2312 2311 2221 2142 2143 2106 1989 2072 2103 2279 1889 1835 1758 1719 1730 1702 1731 1759 2021 2281 2341 2280 2755 2785 2599 2540 2600 2541 2573 2646 2574 2403 2375 2374 2464 2373 2463 2342 2198 2022 2107 2046 2023 1974 2024 2047 2144 2282 2199 2073 2025 1990 1949 1890 1921 1609 1574 1518 1774 1703 1627 1583 1332 1336 1350 1382 1420 1337 1338 1316 1310 1301 1300 1277 1267 1289 1296 1302 1303 1278 1317 1297 1290 1291 1304 1320 1321 1340 1339 1345 1346 1351 1375 1423 1422 1411 1444 1433 1399 1393 1383 1421 1460 1455 1461 1475 1487 1476 1471 1456 1508 1524 1555 1599 1575 1610 1639 1662 1704 1576 1556 1567 1477 1519 1488 1462 1434 1435 1413 1424 1414 
