Best cost: 95843
Time: 1571.51
Route:
684 703 698 714 716 729 735 738 749 753 759 758 741 754 748 743 767 789 793 808 791 771 777 775 769 757 763 768 761 751 750 740 747 736 734 721 711 710 718 731 739 752 756 742 737 764 762 773 782 779 774 765 770 772 786 783 781 790 801 800 802 799 792 785 776 787 798 810 809 807 806 816 836 835 827 805 831 855 858 862 871 882 872 874 878 879 884 873 866 865 839 730 630 796 847 852 848 860 846 842 828 833 819 812 814 815 813 803 804 784 788 766 724 646 629 628 597 588 574 563 592 593 575 614 571 502 473 483 482 443 437 412 391 381 372 369 351 352 354 362 357 413 425 438 515 559 617 633 818 824 845 859 869 876 853 849 840 821 688 637 631 647 755 817 745 649 648 638 613 579 543 530 495 466 549 484 426 373 336 337 323 322 292 313 276 278 281 280 296 312 320 318 329 350 375 365 370 335 324 291 301 302 277 264 259 263 268 258 256 253 247 248 243 240 241 239 242 246 250 249 244 267 287 290 279 295 311 317 321 303 300 299 289 262 252 294 307 298 305 304 310 316 326 330 319 315 271 286 270 261 265 266 272 282 273 274 257 132 133 89 97 103 230 99 96 87 83 74 69 75 70 71 67 64 61 55 56 54 53 51 45 39 38 47 60 73 66 68 79 52 27 19 37 33 28 13 15 21 10 5 4 3 11 18 14 31 30 20 29 34 36 62 59 92 101 105 109 106 110 131 121 134 125 127 119 118 111 116 123 128 126 120 104 115 124 114 130 141 156 158 163 169 167 165 139 129 117 108 122 112 113 107 151 171 192 220 232 221 219 213 198 210 196 184 211 224 233 225 231 227 236 229 235 222 218 216 203 206 207 209 212 226 234 228 223 215 200 188 186 194 191 187 180 177 174 173 182 185 193 195 190 197 208 202 217 214 199 189 178 172 176 170 168 164 161 152 145 149 142 138 140 137 135 136 143 150 159 153 157 146 147 160 155 144 148 162 166 175 183 181 204 238 154 205 102 98 91 95 76 43 48 57 58 50 16 35 65 72 77 80 179 288 309 308 331 333 339 348 360 363 366 355 359 384 521 534 598 520 508 550 589 627 576 622 650 632 626 639 760 797 826 834 856 850 857 867 870 889 892 893 890 886 875 881 880 887 883 877 863 843 838 837 832 829 825 780 746 823 822 820 830 841 851 861 868 896 903 897 901 902 906 909 915 920 929 927 924 922 925 926 928 923 921 919 914 908 895 900 917 918 916 913 911 910 912 907 905 904 899 894 891 898 888 885 864 854 844 795 778 687 664 635 634 636 727 663 686 744 662 811 794 726 625 624 615 623 619 618 600 582 583 584 601 605 606 602 568 567 562 555 561 554 553 540 531 546 552 566 565 564 560 551 509 439 444 434 440 427 435 446 445 452 467 474 468 475 485 496 497 511 510 523 516 522 535 544 538 545 539 536 525 524 512 517 513 503 514 488 478 470 469 487 477 486 476 457 453 447 458 448 454 459 479 489 498 490 491 480 504 518 526 537 547 556 572 577 585 594 595 603 607 612 620 621 616 610 596 587 581 573 580 586 591 604 609 608 599 590 578 570 569 557 548 541 558 542 533 528 519 507 500 499 481 472 464 456 449 442 455 463 493 506 527 532 505 492 462 471 461 460 441 436 429 428 419 418 407 401 402 414 403 408 421 422 416 415 404 405 406 399 410 409 417 423 430 431 432 424 420 411 400 396 390 388 377 379 383 387 389 397 395 394 393 392 385 386 382 378 356 358 349 346 347 344 328 327 325 245 306 297 255 237 93 94 88 84 85 86 82 49 46 81 78 90 42 41 22 8 2 6 1 9 7 12 17 26 23 24 25 32 44 40 63 100 201 285 275 314 293 284 260 254 251 269 283 334 353 376 342 343 340 332 338 341 345 367 368 371 380 374 364 361 398 465 501 494 433 451 450 529 611 641 642 673 707 717 709 720 701 693 680 665 676 683 692 691 708 705 722 733 723 715 706 696 666 661 654 651 644 653 672 655 652 640 645 656 668 679 681 690 689 697 699 704 713 728 732 725 719 712 702 700 694 695 685 682 677 674 670 660 657 658 675 667 671 678 669 643 659 
