Best cost: 87298
Time: 3533.5
Route:
213 209 204 202 200 198 195 210 203 199 196 191 179 175 54 28 11 35 38 30 44 47 55 108 164 151 128 109 82 73 67 34 43 50 93 78 59 71 61 79 92 105 113 115 76 75 70 60 39 42 36 20 25 23 41 45 49 51 52 62 74 100 80 97 118 122 107 94 69 53 57 114 121 120 84 95 72 58 32 29 21 15 10 19 27 48 46 37 40 56 63 68 66 64 77 85 86 89 83 117 119 131 87 65 33 31 26 24 22 18 13 14 12 9 8 7 17 5 6 4 3 2 1 16 174 173 172 184 180 187 192 193 208 194 189 188 181 185 183 178 176 177 171 165 160 154 166 162 167 168 163 159 142 141 134 129 125 124 123 103 110 101 98 102 99 96 90 81 91 106 135 147 155 158 148 149 104 88 112 111 116 130 157 169 143 132 126 133 146 152 150 156 140 136 138 144 153 145 139 127 137 161 170 182 190 186 197 212 205 207 201 206 211 214 217 222 224 221 227 241 245 261 263 264 260 255 256 265 273 288 424 437 342 312 416 411 397 415 420 429 503 511 519 527 528 512 535 562 656 664 689 736 758 764 767 781 787 806 791 765 766 720 655 623 568 549 548 585 613 639 651 685 753 783 813 819 778 847 877 889 917 954 983 919 920 911 899 907 890 873 858 855 863 860 856 837 859 866 897 904 924 943 976 1008 1023 1048 1084 1067 1050 1042 1051 1054 1077 1082 1092 1099 1149 1167 1181 1207 1224 1242 1241 1250 1257 1201 1212 1232 1247 1290 1280 1270 1308 1305 1311 1317 1307 1304 1279 1253 1258 1261 1246 1237 1230 1216 1193 1165 1166 1206 1151 1169 1174 1160 1157 1152 1145 1142 1143 1132 1119 1111 1101 1095 1075 1059 1060 1049 1039 1033 1068 1072 1091 1088 1086 1073 1094 1112 1124 1171 1186 1139 1105 1135 1164 1185 1182 1204 1163 1126 1066 1040 1034 1070 1045 1038 1026 1029 1053 1057 1063 1036 1041 1055 1044 1012 1006 996 985 948 902 870 871 878 861 845 804 795 756 734 727 695 684 630 618 603 616 634 707 733 731 654 776 775 835 932 935 903 929 944 975 982 952 942 931 923 906 891 881 830 789 747 746 812 843 857 862 869 1000 1015 993 1069 1081 1089 1107 1113 1122 1123 1130 1233 1240 1254 1245 1227 1215 1221 1238 1234 1231 1228 1197 1194 1190 1203 1191 1222 1252 1263 1294 1299 1313 1314 1310 1315 1321 1326 1328 1363 1364 1282 1278 1277 1346 1351 1360 1509 1517 1525 1519 1518 1529 1543 1544 1545 1550 1561 1565 1572 1573 1562 1546 1539 1530 1502 1494 1499 1436 1432 1446 1416 1454 1460 1461 1459 1468 1472 1483 1478 1501 1508 1498 1495 1496 1504 1511 1521 1555 1556 1563 1568 1567 1566 1578 1577 1576 1597 1604 1619 1615 1603 1590 1589 1596 1595 1594 1618 1622 1626 1625 1637 1646 1645 1636 1634 1611 1599 1586 1616 1614 1609 1613 1612 1617 1643 1651 1652 1660 1670 1674 1688 1692 1693 1696 1684 1689 1687 1712 1725 1737 1740 1736 1735 1734 1733 1731 1727 1723 1715 1710 1720 1708 1707 1699 1698 1694 1679 1678 1666 1697 1719 1738 1753 1754 1755 1756 1757 1760 1761 1762 1763 1765 1766 1768 1769 1771 1773 1778 1781 1785 1780 1774 1775 1786 1784 1779 1783 1787 1789 1796 1802 1797 1803 1804 1806 1808 1814 1817 1816 1821 1823 1826 1825 1830 1836 1837 1850 1847 1853 1851 1855 1865 1871 1870 1867 1864 1854 1849 1843 1846 1848 1887 1880 1881 1884 1886 1894 1907 1921 1927 1954 1959 1957 1953 1952 1948 1941 1940 1945 1950 1946 1944 1938 1935 1923 1928 1933 1930 1932 1919 1915 1910 1913 1908 1909 1911 1914 1918 1922 1934 1936 1939 1947 1956 1960 1963 1962 1964 1966 1967 1971 1976 1979 1978 1977 1975 1974 1973 1970 1972 1969 1968 1965 1961 1958 1951 1937 1942 1949 1955 1943 1920 1916 1860 1858 1869 1863 1875 1852 1857 1862 1859 1879 1885 1890 1898 1893 1883 1856 1861 1876 1889 1903 1902 1901 1897 1906 1912 1924 1929 1931 1925 1926 1917 1900 1904 1905 1899 1895 1896 1892 1891 1888 1878 1873 1866 1868 1882 1874 1872 1877 1845 1834 1819 1813 1815 1829 1841 1838 1844 1835 1831 1827 1824 1833 1842 1839 1840 1832 1828 1822 1820 1818 1811 1810 1809 1807 1812 1805 1801 1800 1799 1794 1795 1798 1793 1791 1792 1790 1788 1782 1772 1777 1776 1770 1767 1764 1759 1758 1752 1751 1750 1749 1748 1747 1745 1746 1744 1743 1742 1741 1739 1732 1730 1729 1728 1726 1724 1721 1717 1722 1718 1716 1714 1713 1711 1709 1706 1705 1704 1703 1702 1700 1695 1691 1690 1683 1686 1677 1676 1675 1673 1672 1668 1681 1680 1685 1701 1682 1671 1667 1647 1638 1639 1640 1632 1641 1628 1653 1656 1659 1665 1662 1664 1669 1663 1661 1658 1657 1655 1654 1650 1648 1649 1635 1644 1642 1633 1631 1630 1629 1627 1624 1623 1621 1620 1610 1608 1602 1605 1607 1606 1600 1601 1598 1592 1593 1591 1587 1584 1585 1583 1581 1582 1580 1575 1574 1579 1588 1570 1557 1548 1537 1534 1535 1528 1549 1533 1540 1526 1522 1523 1505 1500 1492 1490 1475 1480 1469 1444 1434 1417 1414 1424 1452 1438 1465 1486 1493 1485 1488 1491 1470 1433 1412 1406 1392 1401 1365 1371 1377 1374 1378 1379 1387 1390 1331 1319 1323 1306 1262 1226 1162 1155 1097 1102 1087 1104 1090 1079 1125 1154 1188 1235 1302 1303 1324 1332 1353 1369 1373 1376 1399 1458 1413 1362 1366 1350 1344 1345 1343 1334 1320 1312 1293 1287 1296 1329 1348 1356 1368 1391 1393 1400 1370 1388 1405 1410 1418 1430 1489 1532 1559 1571 1569 1564 1560 1558 1554 1553 1552 1551 1547 1542 1538 1536 1541 1531 1524 1515 1514 1516 1527 1520 1512 1506 1513 1510 1507 1497 1503 1487 1473 1484 1482 1481 1463 1479 1477 1476 1474 1471 1466 1467 1464 1462 1449 1423 1428 1440 1443 1453 1457 1456 1448 1435 1445 1455 1450 1451 1447 1439 1408 1420 1431 1442 1441 1437 1429 1422 1425 1426 1427 1419 1421 1415 1407 1409 1403 1404 1395 1398 1411 1375 1361 1338 1359 1384 1402 1397 1396 1394 1389 1382 1385 1386 1381 1372 1367 1383 1357 1358 1380 1354 1352 1347 1342 1340 1341 1355 1349 1339 1337 1309 1335 1322 1336 1330 1327 1333 1325 1316 1318 1300 1285 1251 1177 1210 1225 1255 1259 1268 1239 1180 1184 1183 1195 1179 1136 1200 1189 1118 1085 1056 1046 1032 1058 1115 1175 1146 1153 1158 1144 1133 1121 1109 1117 1120 1172 1173 1249 1196 1134 1127 1100 1064 1047 1037 1035 1020 1016 994 965 961 956 957 970 980 937 933 927 921 896 849 834 820 816 809 801 780 852 841 844 850 828 829 885 868 839 832 826 817 814 807 808 751 793 811 799 800 802 810 803 790 779 773 748 741 729 711 640 641 626 628 621 624 632 614 648 673 676 670 663 678 680 563 552 524 523 504 494 513 522 521 530 531 537 551 565 577 591 609 633 659 636 619 620 644 643 647 657 666 671 725 705 681 665 679 690 694 702 701 708 716 724 728 745 752 769 762 755 750 798 771 740 743 713 677 607 588 573 572 550 536 529 520 493 490 487 452 442 443 473 466 453 444 445 454 467 474 446 455 456 447 457 488 495 505 532 538 594 610 615 622 627 650 658 642 687 712 772 785 846 788 782 770 774 749 737 714 704 693 686 698 757 759 742 726 738 735 744 761 763 821 822 842 825 840 865 922 938 934 930 939 999 1001 1027 1013 1017 1018 1022 1030 1024 1043 1074 1080 1093 1114 1168 1178 1156 1138 1131 1116 1103 1096 1083 1078 1076 1071 1062 1028 1003 1010 990 972 955 966 979 995 991 987 989 988 986 981 973 969 967 962 953 950 941 945 946 951 959 964 971 984 974 978 977 968 963 936 872 851 838 867 876 879 900 901 883 853 875 887 912 949 960 998 1005 1110 1129 1141 1150 1159 1147 1140 1137 1148 1170 1176 1199 1205 1213 1220 1217 1214 1218 1223 1229 1236 1244 1273 1265 1281 1274 1271 1208 1187 1209 1219 1260 1266 1264 1275 1272 1286 1297 1298 1295 1301 1289 1288 1283 1291 1292 1284 1276 1269 1267 1256 1248 1243 1211 1198 1161 1202 1192 1108 1052 997 992 1014 1025 1128 1106 1098 1061 1065 1031 1021 1011 1019 1009 1007 1004 1002 958 940 916 913 898 947 893 894 874 848 827 797 815 833 864 880 884 908 928 925 892 910 905 909 915 926 914 918 895 886 888 882 854 823 831 836 824 818 796 794 786 805 777 768 784 754 696 668 675 667 660 645 649 617 602 583 592 564 581 593 604 611 629 638 652 569 559 525 502 499 498 517 480 484 485 481 478 479 477 469 464 462 460 450 438 434 465 471 459 458 461 482 507 509 492 533 542 555 571 576 653 584 600 599 595 605 601 608 631 635 637 597 580 554 541 540 553 547 546 558 557 561 596 586 646 662 683 692 691 700 715 718 706 710 709 722 688 739 732 730 721 699 697 703 717 723 760 792 719 674 582 589 556 543 539 534 545 544 566 575 587 570 612 661 672 590 606 625 669 682 598 578 574 579 567 560 526 516 515 518 514 510 508 501 506 497 489 470 472 468 451 448 431 417 418 414 395 400 396 379 366 364 345 341 337 334 329 322 317 310 309 308 300 311 344 354 352 348 350 356 369 378 388 382 377 394 399 428 463 475 476 483 486 491 496 500 441 433 430 427 426 423 422 421 402 403 432 435 439 440 449 436 404 392 383 361 362 370 343 325 326 313 328 332 333 386 393 389 385 371 374 367 360 358 346 338 335 319 318 315 320 314 316 321 331 324 323 340 349 355 347 363 375 384 387 413 408 409 410 407 406 398 405 419 412 425 401 391 390 368 357 353 359 380 381 376 372 373 365 339 336 351 330 327 307 304 301 306 299 295 293 289 279 285 296 291 286 294 292 290 298 302 305 303 297 287 280 278 281 282 284 283 277 272 269 268 275 276 274 271 270 266 267 262 259 258 254 253 252 249 246 244 243 239 240 250 251 247 242 238 236 235 232 233 231 234 230 229 225 228 226 257 237 248 223 220 219 218 216 215 
