Best cost: 1310379
Time: 18362.5
Route:
849 850 837 869 838 822 823 747 775 851 910 885 824 701 593 610 702 796 765 776 797 903 716 728 729 717 703 684 611 612 674 685 739 748 646 633 660 634 626 613 594 544 571 627 527 557 614 750 749 852 839 917 975 1043 1120 1250 1183 1042 1207 1242 1257 1318 1383 1335 1189 1182 1197 1181 1146 1095 1006 1059 1020 1019 974 953 937 1017 1018 1065 1160 1465 1407 1302 1159 1109 1079 1145 1271 1249 1241 1232 1256 1284 1283 1313 1288 1282 1325 1360 1374 1382 1421 1342 1301 1317 1312 1270 1254 1253 1269 1263 1231 1179 1206 1188 1105 1077 1026 1013 984 951 925 817 875 898 924 950 1012 1040 1064 1103 1138 1154 1176 1214 1260 1279 1309 1240 1177 1104 1130 1178 1225 1261 1268 1297 1316 1340 1310 1300 1280 1262 1281 1287 1311 1341 1391 1373 1390 1406 1381 1380 1372 1371 1359 1349 1339 1350 1315 1296 1324 1334 1338 1344 1337 1348 1357 1368 1387 1398 1388 1370 1362 1358 1363 1379 1389 1420 1700 1844 1863 1875 1872 1862 1861 1871 1860 1859 1818 1808 1802 1807 1870 1907 1918 1991 1980 1936 1992 2009 1981 1959 1937 1925 1926 1919 1876 1837 1833 1885 1864 1845 1865 1899 1927 2062 2073 2106 2142 2063 2042 2107 2070 1998 1970 1943 1886 1810 1809 1789 1797 1756 1737 1693 1614 1471 1455 1527 1627 1675 1684 1682 1691 1982 1744 1745 1765 1544 1783 1838 1839 1757 1766 1746 1738 1739 1784 1819 1887 1900 1893 1866 1834 1846 1983 1950 1984 1999 1920 1971 1928 1878 1877 1820 1811 1752 1777 1951 1985 1929 1873 1826 1778 1712 1790 1791 1775 1692 1566 1508 1528 1532 1545 1585 1637 1659 1664 1740 1767 1776 1827 1901 1987 1986 2003 2043 2020 2030 2044 2108 2088 2064 2077 2100 2119 2143 2065 2038 1881 1880 1879 1938 1952 1960 2000 1993 2013 2021 1972 1909 1908 1888 1847 1828 1800 1741 1728 1759 1758 1713 1665 1597 1606 1615 1638 1705 1628 1607 1375 1365 1319 1303 1265 1266 1237 1234 1190 1121 1157 1233 1290 1272 1243 1220 1184 1198 1216 1170 1067 1022 1081 994 948 947 911 905 807 753 841 961 858 647 675 606 616 597 528 473 459 433 445 464 482 488 559 615 705 806 752 767 731 827 904 934 976 993 1035 1112 1156 1164 1264 1364 1399 1437 1479 1491 1502 1519 1490 1478 1462 1458 1430 1327 1326 1345 1289 1139 1034 1044 1163 1161 1021 1133 1111 1110 1066 1080 1050 1007 954 919 960 933 891 825 787 870 890 805 751 718 686 635 719 595 636 572 766 798 704 777 730 637 558 530 472 479 447 419 409 385 392 337 396 384 383 437 440 444 471 509 508 526 586 592 625 715 700 699 698 714 738 737 727 713 726 697 682 736 763 764 786 774 785 836 835 876 848 821 820 804 773 772 761 762 696 681 644 631 673 672 671 680 695 694 725 735 744 745 746 771 784 783 795 803 819 868 857 847 834 802 794 760 759 733 734 724 712 691 670 692 693 656 630 643 624 569 485 507 543 550 561 609 602 603 604 657 658 683 632 645 659 605 584 570 585 579 562 534 522 503 523 468 469 524 525 470 478 463 451 439 431 423 402 382 361 374 395 320 307 297 298 308 280 261 257 262 253 250 242 258 266 299 309 334 335 312 263 254 223 213 211 202 231 246 259 281 282 255 233 219 214 267 283 284 313 323 348 338 344 322 321 336 342 386 375 393 353 343 387 429 458 432 412 441 480 496 486 514 563 596 661 740 741 826 778 840 564 497 487 448 481 424 350 394 403 388 364 317 302 264 236 216 235 224 215 234 240 251 286 301 328 349 354 324 314 285 268 239 206 203 227 243 195 192 193 183 182 184 207 185 170 169 165 160 156 161 150 151 145 142 136 133 127 123 113 126 134 146 144 124 100 103 95 93 90 87 71 79 82 65 61 74 81 86 89 92 80 76 70 69 52 50 48 53 59 68 55 42 39 45 54 72 77 88 106 109 114 111 96 91 78 66 49 62 46 32 33 40 35 41 34 36 43 63 97 94 105 108 104 101 110 112 118 117 120 137 139 147 155 128 143 168 196 188 173 187 190 172 154 158 153 152 157 166 171 175 186 199 212 225 237 217 244 276 278 292 303 329 315 270 275 269 287 291 325 355 389 420 413 365 366 339 345 414 427 415 416 404 417 421 397 362 318 293 340 356 367 358 359 376 330 252 295 294 271 247 228 194 178 208 197 179 162 131 125 119 129 138 115 107 99 98 85 75 67 56 38 31 28 13 22 26 27 29 25 14 12 7 6 2 1 4 9 11 5 3 10 8 15 17 24 21 20 23 19 18 16 30 37 44 47 60 64 51 58 57 73 84 83 102 132 163 248 229 204 191 200 210 241 232 220 226 245 288 256 289 326 341 351 368 410 460 535 573 779 853 892 989 1028 1051 1186 1185 1199 1217 1221 1227 1273 1291 1320 1134 1140 1096 1088 955 962 920 956 1097 1191 1089 963 1098 1122 1135 1147 1136 1165 1148 1235 1258 1351 1328 1238 1400 1492 1695 1706 1732 1793 1882 1821 1803 1760 1747 1742 1694 1670 1685 1639 1576 1520 1481 1442 1472 1509 1616 1731 1753 1792 1902 1944 2022 2144 2446 2547 2598 2527 2498 2497 2482 2455 2445 2401 2376 2335 2314 2306 2283 2305 2196 2234 2324 2454 2466 2538 2630 2812 3219 3226 3513 3646 3694 4078 4218 4294 3505 3330 3346 2917 2726 2262 1889 1939 1994 2197 1973 2014 2004 2031 2029 2032 2045 2074 2120 2089 2075 1930 1812 1840 1921 1961 2015 2055 2198 2346 2388 2483 2528 2539 2557 2548 2599 2499 2807 2828 2842 2829 2843 2830 2873 2864 2865 2612 2860 2844 2831 2832 2520 2377 2284 2136 2155 2090 2046 1910 1848 1794 1940 1945 1962 1988 1974 2005 2010 2016 2017 2047 2011 2018 2023 2024 1953 1954 1995 1955 1975 2033 2056 2066 2172 2082 2001 2006 2121 2126 2127 2173 2145 2235 2285 2307 2156 2174 2325 2389 2521 2573 2642 2728 2794 2660 2695 2641 2529 2513 2502 2632 2659 2568 2501 2606 2687 2718 2588 2587 2605 2717 2694 2631 2601 2604 2613 2727 2600 2586 2558 2549 2500 2378 2622 2792 2793 2746 2761 2752 2716 2874 3122 3178 3195 3302 3309 3700 3917 3939 3650 3701 3604 3377 3295 3227 3213 3170 3003 3130 3151 3163 3399 3472 3615 3667 3728 3780 3897 4137 4174 3948 3455 3144 3109 3098 2866 2906 2787 2772 2853 2884 2938 2969 3179 3171 3032 2970 2925 2747 2753 2788 2897 2977 2976 3004 3110 3138 3366 3379 3551 3260 3202 3067 3023 2950 2813 2749 2777 2748 2669 2623 2614 2662 2681 2688 2696 2680 2668 2661 2559 2530 2438 2157 2146 2109 2199 2336 2426 2540 2484 2447 2337 2251 2175 2110 2236 2439 2531 2427 2347 2237 2238 2348 2273 2448 2514 2364 2252 2200 2349 2356 2263 2158 2201 2239 2264 2265 2380 2485 2357 2440 2365 2379 2471 2457 2456 2670 2697 2706 2779 2833 2899 3075 3033 2990 2898 2778 2750 2808 2705 2754 2918 2951 3099 3131 3196 3245 3231 3283 3256 3342 3386 3752 3885 4037 4152 4278 4328 4366 4388 4430 4508 4391 4340 4260 4183 4203 4244 4258 4196 4122 4134 4144 4148 4135 3992 3940 4052 3913 3659 3661 3558 3668 3669 3687 3626 3577 3511 3456 3425 3401 3415 3347 3322 3284 3369 3274 3198 3116 3034 3042 3069 3057 2961 2960 2944 2814 2908 2907 2781 2755 2893 2875 2835 2700 2645 2664 2735 2721 2617 2503 2472 2353 2352 2458 2561 2589 2616 2560 2699 2720 2738 2780 2892 2984 3080 3005 3115 3145 3206 3207 3232 3250 3197 3205 3204 3181 3311 3331 3406 3418 3468 3462 3552 3591 3597 3629 3609 3461 3387 3310 3438 3496 3429 3358 3261 3246 3153 3068 3024 2891 2834 2789 2643 2663 2644 2624 2707 2762 2845 3011 3154 3180 3186 3174 3187 3203 3237 3214 3123 3061 3050 2991 2926 2920 3012 2971 2919 2900 2959 2878 2729 2698 2615 2607 2574 2575 2689 2708 2795 2773 2846 2774 2671 2625 2550 2450 2449 2351 2286 2315 2274 2350 2402 2220 2159 2160 2147 2128 2221 2212 2213 2253 2287 2240 2101 2102 2202 2203 2354 2504 2505 2626 2532 2522 2646 2590 2756 2647 2523 2359 2358 2316 2183 2184 2222 2185 2275 2338 2186 2148 2214 2215 2390 2486 2551 2507 2395 2506 2608 2672 2757 2736 2796 2722 2673 2562 2459 2451 2360 2161 2137 2308 2223 2361 2428 2609 2690 2790 2861 2901 2885 2902 2978 2903 2854 2758 2682 2683 2809 2847 2928 2929 2930 2775 2633 2515 2618 2487 2403 2224 2162 2339 2396 2366 2367 2525 2524 2541 2648 2723 2763 2764 2820 2922 2979 2985 2931 2940 2992 3111 3199 3222 3164 3134 3100 3247 3239 3297 3319 3370 3304 3296 3267 3172 3133 3052 3071 2997 3015 3118 3189 3221 3253 3303 3343 3392 3440 3417 3430 3382 3427 3469 3520 3514 3565 3617 3639 3678 3707 3712 3651 3699 3688 3616 3585 3559 3495 3498 3499 3473 3448 3416 3359 3324 3285 3215 3156 3084 3025 3092 3238 3266 3312 3348 3402 3388 3380 3262 3263 3155 3132 3070 3051 3006 2921 2927 2909 2939 2972 3117 3124 3105 3220 3188 3251 3333 3353 3457 3492 3610 3605 3598 3673 3674 3748 3851 3781 3741 3758 3706 3670 3635 3611 3543 3497 3463 3426 3323 3381 3439 3458 3480 3562 3627 3677 3676 3675 3734 3711 3742 3782 3800 3822 3830 3831 3832 3826 3823 3814 3834 3809 3759 3716 3690 3679 3653 3652 3622 3583 3588 3530 3531 3623 3586 3532 3481 3474 3482 3533 3544 3483 3470 3437 3419 3475 3459 3449 3445 3393 3412 3441 3394 3344 3313 3325 3248 3200 3135 3101 3072 2986 2948 2886 2855 2797 2765 2684 2665 2569 2552 2266 2204 2225 2241 2242 2243 2429 2473 2516 2554 2553 2691 2798 2932 2993 2933 2867 2759 2739 2709 2674 2340 2176 2254 2381 2138 2362 2244 2404 2405 2415 2103 2187 2295 2430 2368 2431 2397 2369 2542 2563 2576 2702 2791 2879 3062 3146 3077 2998 2974 3035 3093 3173 3233 3292 3184 3036 3087 3140 3210 3241 3258 3308 3307 3354 3396 3409 3374 3400 3477 3501 3561 3601 3649 3600 3571 3535 3516 3485 3446 3405 3363 3332 3291 3270 3335 3249 3229 3175 3125 3059 3045 2973 2980 2848 2740 2741 2591 2610 2619 2685 2635 2649 2634 2751 2731 2701 2693 2692 2730 2815 2910 2876 2945 3007 3119 3128 3103 3076 3073 3086 3053 3044 2836 2816 2856 2934 3026 3106 3165 3228 3269 3306 3350 3362 3383 3408 3433 3452 3453 3503 3524 3521 3599 3628 3656 3683 3770 3835 3827 3815 3738 3655 3590 3567 3502 3489 3465 3404 3334 3320 3389 3443 3442 3432 3361 3373 3268 3257 3252 3183 3254 3276 3345 3403 3413 3407 3360 3367 3421 3488 3540 3539 3534 3560 3506 3493 3464 3420 3451 3484 3515 3566 3523 3613 3587 3625 3663 3743 3737 3682 3642 3606 3563 3522 3500 3460 3428 3395 3288 3240 3182 3208 3216 3289 3372 3275 3290 3209 3102 3058 2941 3085 3043 3139 3298 3305 3349 3371 3431 3450 3476 3545 3569 3681 3702 3680 3648 3647 3624 3592 3553 3512 3578 3589 3596 3634 3696 3747 3736 3708 3658 3637 3654 3662 3695 3612 3636 3660 3691 3657 3717 3735 3765 3766 3844 3934 3976 4193 4234 4269 4136 4199 4237 4198 4206 4192 4191 4284 4286 4289 4295 4347 4346 4370 4378 4426 4428 4434 4438 4440 4444 4409 4402 4379 4376 4361 4359 4280 4264 4250 4245 4207 4176 4168 4169 4146 4151 4140 4138 4133 4129 4125 4124 4143 4147 4159 4145 4153 4158 4166 4162 4181 4188 4197 4211 4275 4214 4190 4164 4160 4142 4141 4123 4101 4059 4014 3969 3979 4027 4041 4063 4091 4090 4109 4043 4028 3990 3960 3991 4024 3974 3996 3957 3959 4013 4012 4097 4126 4121 4104 4057 4075 4074 4103 4110 4106 4131 4080 4058 4019 4035 4045 4047 4051 4115 4095 4096 4108 4092 4081 4060 4064 4033 4079 4088 4100 4087 4076 4071 4067 4073 4030 3973 4056 4068 4082 4062 4002 3968 3958 3972 4018 4072 4023 4004 3985 4036 4048 3905 3882 3871 3865 3838 3918 3898 3874 3837 3817 3801 3777 3784 3785 3795 3802 3852 3803 3767 3772 3786 3804 3796 3824 3753 3718 3808 3872 3845 3860 3818 3891 3783 3744 3697 3630 3643 3723 3790 3839 3902 3929 3861 3797 3754 3664 3570 3618 3631 3640 3692 3791 3877 3933 4010 4003 4034 4055 4050 4044 4040 4029 4025 4026 4006 4020 3950 3984 4005 4011 3997 3975 3906 3892 3919 3930 3899 3866 3886 3900 3909 3893 3894 3862 3853 3828 3805 3768 3750 3719 3713 3760 3798 3819 3840 3858 3854 3873 3878 3895 3920 3901 3910 3941 3980 4049 4015 3942 3970 3986 4016 3998 4065 4069 4098 4116 4139 4170 4184 4204 4212 4222 4228 4227 4288 4223 4229 4233 4238 4249 4252 4290 4307 4342 4332 4329 4338 4322 4313 4298 4259 4185 4235 4261 4285 4270 4255 4276 4271 4262 4265 4272 4247 4239 4230 4219 4205 4200 4209 4220 4224 4231 4240 4256 4266 4287 4296 4304 4310 4317 4319 4356 4348 4349 4325 4312 4309 4331 4314 4300 4303 4302 4308 4311 4330 4335 4315 4318 4343 4351 4352 4360 4362 4367 4371 4373 4386 4414 4420 4405 4401 4400 4398 4397 4399 4493 4498 4494 4483 4499 4518 4515 4522 4529 4478 4421 4412 4415 4396 4375 4353 4345 4350 4344 4333 4326 4339 4320 4316 4297 4248 4281 4273 4257 4336 4337 4327 4321 4253 4279 4299 4306 4177 3993 3943 3952 3926 3962 4093 4119 4132 4165 4127 4111 4032 3994 3989 3953 3978 3932 3977 3963 3937 3714 3825 3904 3925 3915 3936 3988 4053 3987 4001 4000 3951 3938 3921 3903 3867 3849 3787 3746 3732 3721 3709 3720 3666 3620 3572 3507 3471 3391 3365 3217 3081 3120 3136 3137 3104 3176 3225 3299 3314 3279 3234 3185 3159 3212 3264 3286 3278 3224 3191 3167 3166 3190 3158 3201 3293 3326 3398 3375 3466 3546 3547 3564 3581 3582 3724 3730 3756 3751 3698 3725 3731 3740 3686 3684 3685 3762 3807 3810 3820 3857 3848 3856 3816 3855 3863 3880 3879 4007 3999 3961 3935 3931 3914 3859 3842 3868 3869 3875 3769 3555 3526 3525 3580 3619 3644 3671 3704 3745 3761 3841 3888 3887 3847 3846 3806 3773 3792 3778 3755 3739 3703 3665 3632 3584 3536 3579 3554 3517 3486 3447 3422 3390 3364 3321 3277 3223 3211 3161 3157 3160 3147 3126 3112 3016 3027 3037 2981 2935 2880 2837 2987 2942 2904 2817 2710 2650 2602 2564 2732 2452 2341 2245 2296 2122 2111 2188 2129 2406 2432 2460 2467 2474 2508 2433 2565 2468 2407 2416 2309 2104 2139 2370 2398 2488 2577 2666 2782 2868 2943 2949 2952 2994 3078 3107 2533 2509 2434 2297 2149 2205 2163 2276 2277 2399 2489 2490 2510 2578 2675 2783 2799 2869 2911 2953 3017 2999 3046 3028 2954 2923 2821 2651 2652 2592 2711 2579 2461 2317 2299 2298 2383 2382 2408 2246 2177 2164 2150 2112 2130 2206 2189 2113 2140 2417 2636 2667 2766 2823 2887 2849 2838 2822 2894 2936 2966 3000 3029 3063 3094 3095 3079 3018 3008 3047 3168 3193 3351 3355 3336 3280 3129 3019 3013 2895 2784 2555 2580 2475 2418 2226 2123 2247 2329 2318 2391 2453 2581 2653 2785 2767 2786 2824 2912 3054 3064 3148 3300 3384 3527 3537 3614 3645 3733 3726 3729 3881 3843 3811 3799 3757 3710 3621 3573 3538 3479 3454 3434 3385 3327 3337 3423 3478 3508 3518 3410 3356 3235 3169 3141 3096 3020 3074 3038 2913 2825 2742 2654 2462 2355 2267 2216 2227 2131 2190 2278 2268 2165 2166 2124 2167 2168 2217 2256 2248 2255 2288 2300 2310 2301 2279 2330 2319 2280 2326 2342 2332 2331 2191 2151 2114 2048 2067 2049 2025 1963 1931 1932 1903 1868 1867 1851 1850 1849 1822 1804 1829 1830 1946 1989 2007 2026 2057 2058 2076 2096 2141 2192 2228 2207 2249 2169 2034 2068 1911 1964 2115 2039 2078 2193 2208 2229 2302 2343 2410 2477 2628 2637 2676 2714 2620 2715 2896 2924 2963 2988 2957 3009 3014 3022 3060 3090 3149 3114 3039 3002 2983 3001 2982 2968 2962 2967 3113 3055 3127 2996 2975 2947 2905 2881 2956 3021 2955 2915 2877 2937 2889 2862 2888 2871 2839 2770 2743 2744 2760 2800 2801 2826 2771 2713 2745 2724 2737 2584 2593 2535 2492 2321 2320 2269 2289 2385 2441 2476 2534 2733 2712 2769 2656 2627 2603 2570 2583 2409 2333 2312 2311 2281 2491 2436 2419 2400 2372 2363 2371 2384 2435 2511 2543 2582 2655 2703 2768 2914 2870 2946 2995 3030 3048 3097 3088 3065 3089 3376 3424 3467 3487 3357 3435 3574 3556 3548 3568 3557 3549 3368 3242 3315 3328 3411 3541 3490 3494 3602 3749 3727 3821 3491 3528 3638 3672 3774 3763 3776 3775 3793 3812 3864 3884 3924 3966 3983 3965 3982 3945 3981 4017 4046 4031 4008 4042 4061 4066 4118 4175 4172 4178 4236 4292 4301 4241 4210 4217 4156 4085 3956 3947 4077 4107 4117 4130 4150 4163 4179 4186 4195 4202 4216 4232 4291 4254 4215 4213 4201 4194 4180 4173 4167 4149 4114 4094 4084 4113 4112 4089 4083 4070 4054 4038 3995 3964 3944 3954 3971 3955 3946 3922 3911 3907 3883 4021 4105 4155 4182 4225 4243 4267 4274 4251 4293 4357 4380 4368 4323 4381 4384 4424 4427 4403 4408 4413 4418 4389 4387 4385 4365 4358 4383 4395 4417 4437 4469 4480 4453 4425 4419 4407 4429 4445 4441 4442 4447 4436 4443 4432 4448 4446 4449 4450 4455 4465 4470 4463 4472 4473 4482 4476 4479 4481 4484 4485 4486 4500 4495 4489 4491 4509 4496 4475 4474 4468 4456 4488 4492 4524 4505 4502 4513 4517 4528 4539 4546 4582 4592 4594 4600 4614 4619 4641 4633 4632 4636 4639 4625 4629 4624 4616 4615 4607 4572 4580 4578 4579 4568 4570 4567 4576 4565 4573 4577 4569 4564 4575 4581 4585 4587 4586 4583 4566 4562 4557 4560 4550 4548 4544 4553 4538 4535 4527 4534 4523 4512 4501 4520 4530 4525 4521 4511 4516 4533 4464 4514 4532 4467 4462 4452 4423 4439 4431 4435 4471 4504 4561 4597 4595 4599 4598 4605 4642 4643 4613 4637 4644 4645 4651 4658 4650 4647 4635 4631 4621 4602 4603 4559 4552 4549 4589 4593 4556 4545 4542 4510 4519 4506 4466 4460 4458 4457 4451 4497 4540 4547 4612 4634 4623 4620 4660 4656 4652 4640 4628 4591 4531 4433 4363 4277 4171 4161 3890 3949 4128 4226 4263 4246 4268 4334 4305 4341 4283 4372 4374 4364 4377 4390 4411 4454 4507 4536 4551 4563 4601 4626 4609 4608 4588 4630 4638 4648 4649 4654 4661 4659 4655 4657 4653 4663 4662 4646 4627 4610 4584 4526 4537 4590 4596 4558 4543 4541 4487 4461 4404 4354 4324 4221 3967 3908 4086 3923 3715 3608 3510 3436 3301 3244 2572 2519 2425 2597 2621 2465 2546 2640 2916 3414 3764 3397 3693 4154 4157 4369 4392 4393 4410 4459 4490 4503 4554 4574 4571 4606 4604 4622 4618 4617 4611 4555 4477 4406 4422 4416 4394 4382 4355 4282 4242 4187 4208 4189 3850 3794 3789 4022 4039 4120 4102 4099 4009 3870 3916 3876 3889 3912 3928 3927 3896 3788 3833 3836 3829 3813 3779 3771 3722 3705 3689 3641 3633 3593 3603 3595 3607 3594 3576 3575 3550 3542 3519 3504 3529 3509 3444 3352 3340 3329 3339 3338 3316 3281 3259 3236 3192 3162 3150 3040 3108 3091 3049 2989 2964 2890 2840 2776 2719 2810 2704 2677 2657 2638 2480 2422 2442 2512 2594 2571 2537 2481 2374 2413 2469 2494 2545 2678 2686 2629 2595 2639 2585 2470 2443 2218 2036 2035 2053 2117 2091 2085 2079 2116 2152 2210 2322 2345 2421 2412 2420 2328 2292 2271 2179 2105 2084 2071 2290 2334 2387 2327 2291 2304 2411 2464 2518 2493 2437 2373 2344 2463 2479 2517 2544 2566 2536 2478 2392 2386 2303 2270 2230 2209 2178 2170 2132 2097 2050 1976 1965 1996 2125 2083 2051 2052 2027 1990 1977 1891 1813 1795 1853 1842 1824 1852 1836 1841 1890 1913 1941 1912 1933 1956 1947 1922 1894 1883 1835 1823 1798 1768 1748 1719 1762 1733 1720 1730 1749 1779 1769 1754 1708 1677 1671 1666 1681 1648 1629 1567 1533 1555 1602 1608 1601 1618 1594 1560 1549 1559 1573 1593 1635 1653 1660 1676 1686 1696 1707 1715 1729 1761 1724 1714 1701 1683 1657 1652 1644 1647 1640 1617 1600 1586 1572 1554 1548 1522 1511 1510 1497 1529 1538 1547 1553 1599 1592 1634 1646 1633 1598 1591 1558 1546 1521 1486 1474 1470 1463 1438 1425 1412 1403 1298 1321 1329 1276 1285 1352 1376 1401 1413 1426 1443 1448 1464 1506 1512 1475 1482 1480 1466 1384 1353 1402 1439 1449 1456 1498 1503 1513 1504 1619 1603 1556 1493 1499 1476 1473 1457 1452 1453 1431 1392 1404 1377 1393 1408 1435 1440 1450 1467 1534 1587 1604 1620 1550 1539 1530 1540 1535 1561 1577 1678 1578 1568 1574 1562 1575 1551 1579 1609 1588 1580 1569 1589 1621 1679 1667 1654 1661 1672 1687 1709 1725 1770 1772 1780 1785 1805 1831 1915 1923 1896 1916 1892 1948 1968 1997 1967 1914 1854 1869 1895 1966 2134 2171 2133 2180 2094 2086 2093 2092 2118 2153 2231 2393 2444 2423 2394 2424 2414 2495 2567 2679 2734 2802 2827 2882 2965 3041 3010 3056 3082 3121 3143 3142 3152 3177 3194 3230 3255 3265 3317 3378 3341 3318 3287 3282 3271 3272 3294 3273 3243 3218 3083 3066 3031 2958 2883 2818 2803 2804 2819 2293 2194 2257 2294 2059 2080 2098 2135 2069 2041 2012 2040 2037 2019 1969 1949 1957 1855 1832 1814 1806 1796 1773 1771 1716 1702 1721 1726 1734 1750 1763 1786 1735 1751 1727 1697 1688 1673 1642 1581 1622 1645 1662 1631 1656 1668 1655 1641 1630 1610 1541 1469 1459 1428 1395 1278 1330 1306 1286 1222 1174 1152 1118 1102 1075 1048 1049 1038 1055 1010 1128 1223 1267 1322 1385 1429 1436 1477 1444 1418 1419 1410 1396 1414 1366 1361 1331 1293 1252 1239 1219 1175 1194 1142 1137 1119 1061 981 971 980 928 855 831 687 816 863 897 940 991 1039 1076 1011 936 882 1024 997 966 914 801 815 894 958 970 996 939 874 862 881 861 888 923 830 887 814 860 769 707 664 651 599 538 539 575 639 665 553 545 529 531 540 587 652 743 666 708 620 608 607 619 546 494 505 457 476 475 493 511 492 500 499 504 491 456 490 455 434 405 454 498 517 567 598 677 676 663 628 566 662 781 845 893 854 813 790 780 768 706 650 812 873 789 649 638 811 935 1001 979 1002 1084 1116 1073 1092 1085 1074 1030 1003 886 880 913 922 906 927 1054 1047 1023 1070 1212 1245 1305 1314 1409 1354 1299 1259 1211 1205 1193 1127 1126 1101 1100 1173 1210 1244 1218 1168 1204 1151 1141 1117 1125 1167 1172 1150 1203 1202 1201 1200 1166 1209 1468 1494 1500 1563 1423 1422 1394 1304 1171 1124 1149 1292 1277 1251 1208 1187 1192 1115 1083 1029 1037 1009 938 912 810 844 872 859 829 809 800 799 808 843 879 878 949 978 965 990 969 977 968 1046 1000 1045 1114 1113 1091 1072 1069 1053 1052 1068 1123 1099 1090 1082 1060 1036 995 1008 964 957 921 877 828 871 842 788 742 720 617 560 618 551 648 536 537 552 565 574 510 515 489 474 452 453 442 438 446 425 516 483 443 422 399 377 370 369 378 390 379 331 332 333 398 391 371 360 346 406 407 400 372 306 310 327 352 305 319 304 300 279 277 290 260 265 272 238 218 221 201 198 176 148 167 140 135 141 130 121 116 122 149 174 180 159 164 177 181 189 205 209 230 222 249 273 274 311 296 316 347 363 357 373 380 408 411 428 401 426 430 435 449 477 465 450 621 754 709 640 576 568 588 622 541 501 518 512 519 484 461 418 381 436 495 554 547 532 580 600 667 791 865 883 864 941 1004 959 1056 1062 982 942 998 992 1031 1071 1129 1213 1224 1153 1195 1228 1246 1397 1346 1294 1274 1332 1355 1432 1454 1495 1487 1460 1501 1505 1564 1582 1624 1680 1710 1689 1658 1632 1636 1611 1557 1531 1514 1515 1523 1524 1536 1565 1516 1488 1525 1552 1584 1583 1612 1590 1625 1650 1649 1669 1690 1711 1718 1743 1774 1799 1825 1858 1857 1816 1884 1898 1897 1856 1906 1935 1942 1979 1905 1934 2002 2028 1917 1904 1874 1801 1595 1542 1623 1663 1698 1703 1717 1722 1704 1699 1723 1764 1787 1815 1843 1958 1978 2054 2061 2072 2081 2060 2099 2154 2181 2250 2260 2259 2282 2095 2272 2258 2219 2232 2195 2658 2611 2556 2496 2841 2863 2850 2857 2872 2851 2852 2858 2859 2805 2811 2806 2725 2596 2526 2375 2323 2261 2211 2233 2182 2087 2313 2008 1924 1817 1788 1755 1736 1781 1782 1674 1651 1643 1605 1596 1570 1626 1613 1571 1537 1518 1485 1451 1447 1433 1424 1434 1427 1416 1417 1378 1343 1367 1386 1405 1415 1446 1445 1461 1484 1483 1496 1507 1543 1526 1517 1489 1441 1411 1369 1307 1229 1356 1333 1308 1336 1347 1323 1295 1275 1247 1230 1196 1093 1063 1025 1057 1058 1094 983 929 895 792 710 641 755 548 577 668 721 688 653 629 581 520 533 466 462 467 578 582 654 711 793 856 908 907 915 972 1078 1155 1215 1236 1248 1255 1226 1180 1169 1158 1162 1106 1086 985 967 943 952 926 832 723 669 623 722 589 590 555 506 549 642 678 732 818 833 846 899 944 999 1033 1032 1107 1143 1144 1131 1108 1132 1087 1041 1027 1014 1005 986 946 930 945 909 866 782 770 757 756 679 655 583 513 521 502 542 556 591 601 689 690 758 867 884 896 889 900 918 931 987 1015 973 1016 988 932 901 902 916 
